*Heading
** WCM angle verification; mm N MPa
*Node
1, 2.0, 0.0, 0.0
2, 2.2, 0.0, 0.0
3, 2.2, 0.2, 0.0
4, 2.0, 0.2, 0.0
5, 2.0, 0.0, 0.2
6, 2.2, 0.0, 0.2
7, 2.2, 0.2, 0.2
8, 2.0, 0.2, 0.2
9, 4.0, 0.0, 0.0
10, 4.2, 0.0, 0.0
11, 4.2, 0.2, 0.0
12, 4.0, 0.2, 0.0
13, 4.0, 0.0, 0.2
14, 4.2, 0.0, 0.2
15, 4.2, 0.2, 0.2
16, 4.0, 0.2, 0.2
17, 6.0, 0.0, 0.0
18, 6.2, 0.0, 0.0
19, 6.2, 0.2, 0.0
20, 6.0, 0.2, 0.0
21, 6.0, 0.0, 0.2
22, 6.2, 0.0, 0.2
23, 6.2, 0.2, 0.2
24, 6.0, 0.2, 0.2
25, 8.0, 0.0, 0.0
26, 8.2, 0.0, 0.0
27, 8.2, 0.2, 0.0
28, 8.0, 0.2, 0.0
29, 8.0, 0.0, 0.2
30, 8.2, 0.0, 0.2
31, 8.2, 0.2, 0.2
32, 8.0, 0.2, 0.2
33, 10.0, 0.0, 0.0
34, 10.2, 0.0, 0.0
35, 10.2, 0.2, 0.0
36, 10.0, 0.2, 0.0
37, 10.0, 0.0, 0.2
38, 10.2, 0.0, 0.2
39, 10.2, 0.2, 0.2
40, 10.0, 0.2, 0.2
41, 12.0, 0.0, 0.0
42, 12.2, 0.0, 0.0
43, 12.2, 0.2, 0.0
44, 12.0, 0.2, 0.0
45, 12.0, 0.0, 0.2
46, 12.2, 0.0, 0.2
47, 12.2, 0.2, 0.2
48, 12.0, 0.2, 0.2
49, 14.0, 0.0, 0.0
50, 14.2, 0.0, 0.0
51, 14.2, 0.2, 0.0
52, 14.0, 0.2, 0.0
53, 14.0, 0.0, 0.2
54, 14.2, 0.0, 0.2
55, 14.2, 0.2, 0.2
56, 14.0, 0.2, 0.2
57, 16.0, 0.0, 0.0
58, 16.2, 0.0, 0.0
59, 16.2, 0.2, 0.0
60, 16.0, 0.2, 0.0
61, 16.0, 0.0, 0.2
62, 16.2, 0.0, 0.2
63, 16.2, 0.2, 0.2
64, 16.0, 0.2, 0.2
65, 18.0, 0.0, 0.0
66, 18.2, 0.0, 0.0
67, 18.2, 0.2, 0.0
68, 18.0, 0.2, 0.0
69, 18.0, 0.0, 0.2
70, 18.2, 0.0, 0.2
71, 18.2, 0.2, 0.2
72, 18.0, 0.2, 0.2
73, 20.0, 0.0, 0.0
74, 20.2, 0.0, 0.0
75, 20.2, 0.2, 0.0
76, 20.0, 0.2, 0.0
77, 20.0, 0.0, 0.2
78, 20.2, 0.0, 0.2
79, 20.2, 0.2, 0.2
80, 20.0, 0.2, 0.2
81, 22.0, 0.0, 0.0
82, 22.2, 0.0, 0.0
83, 22.2, 0.2, 0.0
84, 22.0, 0.2, 0.0
85, 22.0, 0.0, 0.2
86, 22.2, 0.0, 0.2
87, 22.2, 0.2, 0.2
88, 22.0, 0.2, 0.2
89, 24.0, 0.0, 0.0
90, 24.2, 0.0, 0.0
91, 24.2, 0.2, 0.0
92, 24.0, 0.2, 0.0
93, 24.0, 0.0, 0.2
94, 24.2, 0.0, 0.2
95, 24.2, 0.2, 0.2
96, 24.0, 0.2, 0.2
97, 26.0, 0.0, 0.0
98, 26.2, 0.0, 0.0
99, 26.2, 0.2, 0.0
100, 26.0, 0.2, 0.0
101, 26.0, 0.0, 0.2
102, 26.2, 0.0, 0.2
103, 26.2, 0.2, 0.2
104, 26.0, 0.2, 0.2
105, 28.0, 0.0, 0.0
106, 28.2, 0.0, 0.0
107, 28.2, 0.2, 0.0
108, 28.0, 0.2, 0.0
109, 28.0, 0.0, 0.2
110, 28.2, 0.0, 0.2
111, 28.2, 0.2, 0.2
112, 28.0, 0.2, 0.2
113, 30.0, 0.0, 0.0
114, 30.2, 0.0, 0.0
115, 30.2, 0.2, 0.0
116, 30.0, 0.2, 0.0
117, 30.0, 0.0, 0.2
118, 30.2, 0.0, 0.2
119, 30.2, 0.2, 0.2
120, 30.0, 0.2, 0.2
121, 32.0, 0.0, 0.0
122, 32.2, 0.0, 0.0
123, 32.2, 0.2, 0.0
124, 32.0, 0.2, 0.0
125, 32.0, 0.0, 0.2
126, 32.2, 0.0, 0.2
127, 32.2, 0.2, 0.2
128, 32.0, 0.2, 0.2
129, 34.0, 0.0, 0.0
130, 34.2, 0.0, 0.0
131, 34.2, 0.2, 0.0
132, 34.0, 0.2, 0.0
133, 34.0, 0.0, 0.2
134, 34.2, 0.0, 0.2
135, 34.2, 0.2, 0.2
136, 34.0, 0.2, 0.2
137, 36.0, 0.0, 0.0
138, 36.2, 0.0, 0.0
139, 36.2, 0.2, 0.0
140, 36.0, 0.2, 0.0
141, 36.0, 0.0, 0.2
142, 36.2, 0.0, 0.2
143, 36.2, 0.2, 0.2
144, 36.0, 0.2, 0.2
145, 38.0, 0.0, 0.0
146, 38.2, 0.0, 0.0
147, 38.2, 0.2, 0.0
148, 38.0, 0.2, 0.0
149, 38.0, 0.0, 0.2
150, 38.2, 0.0, 0.2
151, 38.2, 0.2, 0.2
152, 38.0, 0.2, 0.2
153, 40.0, 0.0, 0.0
154, 40.2, 0.0, 0.0
155, 40.2, 0.2, 0.0
156, 40.0, 0.2, 0.0
157, 40.0, 0.0, 0.2
158, 40.2, 0.0, 0.2
159, 40.2, 0.2, 0.2
160, 40.0, 0.2, 0.2
161, 42.0, 0.0, 0.0
162, 42.2, 0.0, 0.0
163, 42.2, 0.2, 0.0
164, 42.0, 0.2, 0.0
165, 42.0, 0.0, 0.2
166, 42.2, 0.0, 0.2
167, 42.2, 0.2, 0.2
168, 42.0, 0.2, 0.2
169, 44.0, 0.0, 0.0
170, 44.2, 0.0, 0.0
171, 44.2, 0.2, 0.0
172, 44.0, 0.2, 0.0
173, 44.0, 0.0, 0.2
174, 44.2, 0.0, 0.2
175, 44.2, 0.2, 0.2
176, 44.0, 0.2, 0.2
177, 46.0, 0.0, 0.0
178, 46.2, 0.0, 0.0
179, 46.2, 0.2, 0.0
180, 46.0, 0.2, 0.0
181, 46.0, 0.0, 0.2
182, 46.2, 0.0, 0.2
183, 46.2, 0.2, 0.2
184, 46.0, 0.2, 0.2
185, 48.0, 0.0, 0.0
186, 48.2, 0.0, 0.0
187, 48.2, 0.2, 0.0
188, 48.0, 0.2, 0.0
189, 48.0, 0.0, 0.2
190, 48.2, 0.0, 0.2
191, 48.2, 0.2, 0.2
192, 48.0, 0.2, 0.2
193, 50.0, 0.0, 0.0
194, 50.2, 0.0, 0.0
195, 50.2, 0.2, 0.0
196, 50.0, 0.2, 0.0
197, 50.0, 0.0, 0.2
198, 50.2, 0.0, 0.2
199, 50.2, 0.2, 0.2
200, 50.0, 0.2, 0.2
201, 52.0, 0.0, 0.0
202, 52.2, 0.0, 0.0
203, 52.2, 0.2, 0.0
204, 52.0, 0.2, 0.0
205, 52.0, 0.0, 0.2
206, 52.2, 0.0, 0.2
207, 52.2, 0.2, 0.2
208, 52.0, 0.2, 0.2
209, 54.0, 0.0, 0.0
210, 54.2, 0.0, 0.0
211, 54.2, 0.2, 0.0
212, 54.0, 0.2, 0.0
213, 54.0, 0.0, 0.2
214, 54.2, 0.0, 0.2
215, 54.2, 0.2, 0.2
216, 54.0, 0.2, 0.2
217, 56.0, 0.0, 0.0
218, 56.2, 0.0, 0.0
219, 56.2, 0.2, 0.0
220, 56.0, 0.2, 0.0
221, 56.0, 0.0, 0.2
222, 56.2, 0.0, 0.2
223, 56.2, 0.2, 0.2
224, 56.0, 0.2, 0.2
225, 58.0, 0.0, 0.0
226, 58.2, 0.0, 0.0
227, 58.2, 0.2, 0.0
228, 58.0, 0.2, 0.0
229, 58.0, 0.0, 0.2
230, 58.2, 0.0, 0.2
231, 58.2, 0.2, 0.2
232, 58.0, 0.2, 0.2
233, 60.0, 0.0, 0.0
234, 60.2, 0.0, 0.0
235, 60.2, 0.2, 0.0
236, 60.0, 0.2, 0.0
237, 60.0, 0.0, 0.2
238, 60.2, 0.0, 0.2
239, 60.2, 0.2, 0.2
240, 60.0, 0.2, 0.2
241, 62.0, 0.0, 0.0
242, 62.2, 0.0, 0.0
243, 62.2, 0.2, 0.0
244, 62.0, 0.2, 0.0
245, 62.0, 0.0, 0.2
246, 62.2, 0.0, 0.2
247, 62.2, 0.2, 0.2
248, 62.0, 0.2, 0.2
249, 64.0, 0.0, 0.0
250, 64.2, 0.0, 0.0
251, 64.2, 0.2, 0.0
252, 64.0, 0.2, 0.0
253, 64.0, 0.0, 0.2
254, 64.2, 0.0, 0.2
255, 64.2, 0.2, 0.2
256, 64.0, 0.2, 0.2
257, 66.0, 0.0, 0.0
258, 66.2, 0.0, 0.0
259, 66.2, 0.2, 0.0
260, 66.0, 0.2, 0.0
261, 66.0, 0.0, 0.2
262, 66.2, 0.0, 0.2
263, 66.2, 0.2, 0.2
264, 66.0, 0.2, 0.2
265, 68.0, 0.0, 0.0
266, 68.2, 0.0, 0.0
267, 68.2, 0.2, 0.0
268, 68.0, 0.2, 0.0
269, 68.0, 0.0, 0.2
270, 68.2, 0.0, 0.2
271, 68.2, 0.2, 0.2
272, 68.0, 0.2, 0.2
273, 70.0, 0.0, 0.0
274, 70.2, 0.0, 0.0
275, 70.2, 0.2, 0.0
276, 70.0, 0.2, 0.0
277, 70.0, 0.0, 0.2
278, 70.2, 0.0, 0.2
279, 70.2, 0.2, 0.2
280, 70.0, 0.2, 0.2
281, 72.0, 0.0, 0.0
282, 72.2, 0.0, 0.0
283, 72.2, 0.2, 0.0
284, 72.0, 0.2, 0.0
285, 72.0, 0.0, 0.2
286, 72.2, 0.0, 0.2
287, 72.2, 0.2, 0.2
288, 72.0, 0.2, 0.2
289, 74.0, 0.0, 0.0
290, 74.2, 0.0, 0.0
291, 74.2, 0.2, 0.0
292, 74.0, 0.2, 0.0
293, 74.0, 0.0, 0.2
294, 74.2, 0.0, 0.2
295, 74.2, 0.2, 0.2
296, 74.0, 0.2, 0.2
297, 76.0, 0.0, 0.0
298, 76.2, 0.0, 0.0
299, 76.2, 0.2, 0.0
300, 76.0, 0.2, 0.0
301, 76.0, 0.0, 0.2
302, 76.2, 0.0, 0.2
303, 76.2, 0.2, 0.2
304, 76.0, 0.2, 0.2
305, 78.0, 0.0, 0.0
306, 78.2, 0.0, 0.0
307, 78.2, 0.2, 0.0
308, 78.0, 0.2, 0.0
309, 78.0, 0.0, 0.2
310, 78.2, 0.0, 0.2
311, 78.2, 0.2, 0.2
312, 78.0, 0.2, 0.2
313, 80.0, 0.0, 0.0
314, 80.2, 0.0, 0.0
315, 80.2, 0.2, 0.0
316, 80.0, 0.2, 0.0
317, 80.0, 0.0, 0.2
318, 80.2, 0.0, 0.2
319, 80.2, 0.2, 0.2
320, 80.0, 0.2, 0.2
321, 82.0, 0.0, 0.0
322, 82.2, 0.0, 0.0
323, 82.2, 0.2, 0.0
324, 82.0, 0.2, 0.0
325, 82.0, 0.0, 0.2
326, 82.2, 0.0, 0.2
327, 82.2, 0.2, 0.2
328, 82.0, 0.2, 0.2
329, 84.0, 0.0, 0.0
330, 84.2, 0.0, 0.0
331, 84.2, 0.2, 0.0
332, 84.0, 0.2, 0.0
333, 84.0, 0.0, 0.2
334, 84.2, 0.0, 0.2
335, 84.2, 0.2, 0.2
336, 84.0, 0.2, 0.2
337, 86.0, 0.0, 0.0
338, 86.2, 0.0, 0.0
339, 86.2, 0.2, 0.0
340, 86.0, 0.2, 0.0
341, 86.0, 0.0, 0.2
342, 86.2, 0.0, 0.2
343, 86.2, 0.2, 0.2
344, 86.0, 0.2, 0.2
345, 88.0, 0.0, 0.0
346, 88.2, 0.0, 0.0
347, 88.2, 0.2, 0.0
348, 88.0, 0.2, 0.0
349, 88.0, 0.0, 0.2
350, 88.2, 0.0, 0.2
351, 88.2, 0.2, 0.2
352, 88.0, 0.2, 0.2
353, 90.0, 0.0, 0.0
354, 90.2, 0.0, 0.0
355, 90.2, 0.2, 0.0
356, 90.0, 0.2, 0.0
357, 90.0, 0.0, 0.2
358, 90.2, 0.0, 0.2
359, 90.2, 0.2, 0.2
360, 90.0, 0.2, 0.2
361, 92.0, 0.0, 0.0
362, 92.2, 0.0, 0.0
363, 92.2, 0.2, 0.0
364, 92.0, 0.2, 0.0
365, 92.0, 0.0, 0.2
366, 92.2, 0.0, 0.2
367, 92.2, 0.2, 0.2
368, 92.0, 0.2, 0.2
369, 94.0, 0.0, 0.0
370, 94.2, 0.0, 0.0
371, 94.2, 0.2, 0.0
372, 94.0, 0.2, 0.0
373, 94.0, 0.0, 0.2
374, 94.2, 0.0, 0.2
375, 94.2, 0.2, 0.2
376, 94.0, 0.2, 0.2
377, 96.0, 0.0, 0.0
378, 96.2, 0.0, 0.0
379, 96.2, 0.2, 0.0
380, 96.0, 0.2, 0.0
381, 96.0, 0.0, 0.2
382, 96.2, 0.0, 0.2
383, 96.2, 0.2, 0.2
384, 96.0, 0.2, 0.2
385, 98.0, 0.0, 0.0
386, 98.2, 0.0, 0.0
387, 98.2, 0.2, 0.0
388, 98.0, 0.2, 0.0
389, 98.0, 0.0, 0.2
390, 98.2, 0.0, 0.2
391, 98.2, 0.2, 0.2
392, 98.0, 0.2, 0.2
393, 100.0, 0.0, 0.0
394, 100.2, 0.0, 0.0
395, 100.2, 0.2, 0.0
396, 100.0, 0.2, 0.0
397, 100.0, 0.0, 0.2
398, 100.2, 0.0, 0.2
399, 100.2, 0.2, 0.2
400, 100.0, 0.2, 0.2
401, 102.0, 0.0, 0.0
402, 102.2, 0.0, 0.0
403, 102.2, 0.2, 0.0
404, 102.0, 0.2, 0.0
405, 102.0, 0.0, 0.2
406, 102.2, 0.0, 0.2
407, 102.2, 0.2, 0.2
408, 102.0, 0.2, 0.2
409, 104.0, 0.0, 0.0
410, 104.2, 0.0, 0.0
411, 104.2, 0.2, 0.0
412, 104.0, 0.2, 0.0
413, 104.0, 0.0, 0.2
414, 104.2, 0.0, 0.2
415, 104.2, 0.2, 0.2
416, 104.0, 0.2, 0.2
417, 106.0, 0.0, 0.0
418, 106.2, 0.0, 0.0
419, 106.2, 0.2, 0.0
420, 106.0, 0.2, 0.0
421, 106.0, 0.0, 0.2
422, 106.2, 0.0, 0.2
423, 106.2, 0.2, 0.2
424, 106.0, 0.2, 0.2
425, 108.0, 0.0, 0.0
426, 108.2, 0.0, 0.0
427, 108.2, 0.2, 0.0
428, 108.0, 0.2, 0.0
429, 108.0, 0.0, 0.2
430, 108.2, 0.0, 0.2
431, 108.2, 0.2, 0.2
432, 108.0, 0.2, 0.2
433, 110.0, 0.0, 0.0
434, 110.2, 0.0, 0.0
435, 110.2, 0.2, 0.0
436, 110.0, 0.2, 0.0
437, 110.0, 0.0, 0.2
438, 110.2, 0.0, 0.2
439, 110.2, 0.2, 0.2
440, 110.0, 0.2, 0.2
441, 112.0, 0.0, 0.0
442, 112.2, 0.0, 0.0
443, 112.2, 0.2, 0.0
444, 112.0, 0.2, 0.0
445, 112.0, 0.0, 0.2
446, 112.2, 0.0, 0.2
447, 112.2, 0.2, 0.2
448, 112.0, 0.2, 0.2
449, 114.0, 0.0, 0.0
450, 114.2, 0.0, 0.0
451, 114.2, 0.2, 0.0
452, 114.0, 0.2, 0.0
453, 114.0, 0.0, 0.2
454, 114.2, 0.0, 0.2
455, 114.2, 0.2, 0.2
456, 114.0, 0.2, 0.2
457, 116.0, 0.0, 0.0
458, 116.2, 0.0, 0.0
459, 116.2, 0.2, 0.0
460, 116.0, 0.2, 0.0
461, 116.0, 0.0, 0.2
462, 116.2, 0.0, 0.2
463, 116.2, 0.2, 0.2
464, 116.0, 0.2, 0.2
465, 118.0, 0.0, 0.0
466, 118.2, 0.0, 0.0
467, 118.2, 0.2, 0.0
468, 118.0, 0.2, 0.0
469, 118.0, 0.0, 0.2
470, 118.2, 0.0, 0.2
471, 118.2, 0.2, 0.2
472, 118.0, 0.2, 0.2
473, 120.0, 0.0, 0.0
474, 120.2, 0.0, 0.0
475, 120.2, 0.2, 0.0
476, 120.0, 0.2, 0.0
477, 120.0, 0.0, 0.2
478, 120.2, 0.0, 0.2
479, 120.2, 0.2, 0.2
480, 120.0, 0.2, 0.2
*Element, type=C3D8, elset=E1
1, 1, 2, 3, 4, 5, 6, 7, 8
*Element, type=C3D8, elset=E2
2, 9, 10, 11, 12, 13, 14, 15, 16
*Element, type=C3D8, elset=E3
3, 17, 18, 19, 20, 21, 22, 23, 24
*Element, type=C3D8, elset=E4
4, 25, 26, 27, 28, 29, 30, 31, 32
*Element, type=C3D8, elset=E5
5, 33, 34, 35, 36, 37, 38, 39, 40
*Element, type=C3D8, elset=E6
6, 41, 42, 43, 44, 45, 46, 47, 48
*Element, type=C3D8, elset=E7
7, 49, 50, 51, 52, 53, 54, 55, 56
*Element, type=C3D8, elset=E8
8, 57, 58, 59, 60, 61, 62, 63, 64
*Element, type=C3D8, elset=E9
9, 65, 66, 67, 68, 69, 70, 71, 72
*Element, type=C3D8, elset=E10
10, 73, 74, 75, 76, 77, 78, 79, 80
*Element, type=C3D8, elset=E11
11, 81, 82, 83, 84, 85, 86, 87, 88
*Element, type=C3D8, elset=E12
12, 89, 90, 91, 92, 93, 94, 95, 96
*Element, type=C3D8, elset=E13
13, 97, 98, 99, 100, 101, 102, 103, 104
*Element, type=C3D8, elset=E14
14, 105, 106, 107, 108, 109, 110, 111, 112
*Element, type=C3D8, elset=E15
15, 113, 114, 115, 116, 117, 118, 119, 120
*Element, type=C3D8, elset=E16
16, 121, 122, 123, 124, 125, 126, 127, 128
*Element, type=C3D8, elset=E17
17, 129, 130, 131, 132, 133, 134, 135, 136
*Element, type=C3D8, elset=E18
18, 137, 138, 139, 140, 141, 142, 143, 144
*Element, type=C3D8, elset=E19
19, 145, 146, 147, 148, 149, 150, 151, 152
*Element, type=C3D8, elset=E20
20, 153, 154, 155, 156, 157, 158, 159, 160
*Element, type=C3D8, elset=E21
21, 161, 162, 163, 164, 165, 166, 167, 168
*Element, type=C3D8, elset=E22
22, 169, 170, 171, 172, 173, 174, 175, 176
*Element, type=C3D8, elset=E23
23, 177, 178, 179, 180, 181, 182, 183, 184
*Element, type=C3D8, elset=E24
24, 185, 186, 187, 188, 189, 190, 191, 192
*Element, type=C3D8, elset=E25
25, 193, 194, 195, 196, 197, 198, 199, 200
*Element, type=C3D8, elset=E26
26, 201, 202, 203, 204, 205, 206, 207, 208
*Element, type=C3D8, elset=E27
27, 209, 210, 211, 212, 213, 214, 215, 216
*Element, type=C3D8, elset=E28
28, 217, 218, 219, 220, 221, 222, 223, 224
*Element, type=C3D8, elset=E29
29, 225, 226, 227, 228, 229, 230, 231, 232
*Element, type=C3D8, elset=E30
30, 233, 234, 235, 236, 237, 238, 239, 240
*Element, type=C3D8, elset=E31
31, 241, 242, 243, 244, 245, 246, 247, 248
*Element, type=C3D8, elset=E32
32, 249, 250, 251, 252, 253, 254, 255, 256
*Element, type=C3D8, elset=E33
33, 257, 258, 259, 260, 261, 262, 263, 264
*Element, type=C3D8, elset=E34
34, 265, 266, 267, 268, 269, 270, 271, 272
*Element, type=C3D8, elset=E35
35, 273, 274, 275, 276, 277, 278, 279, 280
*Element, type=C3D8, elset=E36
36, 281, 282, 283, 284, 285, 286, 287, 288
*Element, type=C3D8, elset=E37
37, 289, 290, 291, 292, 293, 294, 295, 296
*Element, type=C3D8, elset=E38
38, 297, 298, 299, 300, 301, 302, 303, 304
*Element, type=C3D8, elset=E39
39, 305, 306, 307, 308, 309, 310, 311, 312
*Element, type=C3D8, elset=E40
40, 313, 314, 315, 316, 317, 318, 319, 320
*Element, type=C3D8, elset=E41
41, 321, 322, 323, 324, 325, 326, 327, 328
*Element, type=C3D8, elset=E42
42, 329, 330, 331, 332, 333, 334, 335, 336
*Element, type=C3D8, elset=E43
43, 337, 338, 339, 340, 341, 342, 343, 344
*Element, type=C3D8, elset=E44
44, 345, 346, 347, 348, 349, 350, 351, 352
*Element, type=C3D8, elset=E45
45, 353, 354, 355, 356, 357, 358, 359, 360
*Element, type=C3D8, elset=E46
46, 361, 362, 363, 364, 365, 366, 367, 368
*Element, type=C3D8, elset=E47
47, 369, 370, 371, 372, 373, 374, 375, 376
*Element, type=C3D8, elset=E48
48, 377, 378, 379, 380, 381, 382, 383, 384
*Element, type=C3D8, elset=E49
49, 385, 386, 387, 388, 389, 390, 391, 392
*Element, type=C3D8, elset=E50
50, 393, 394, 395, 396, 397, 398, 399, 400
*Element, type=C3D8, elset=E51
51, 401, 402, 403, 404, 405, 406, 407, 408
*Element, type=C3D8, elset=E52
52, 409, 410, 411, 412, 413, 414, 415, 416
*Element, type=C3D8, elset=E53
53, 417, 418, 419, 420, 421, 422, 423, 424
*Element, type=C3D8, elset=E54
54, 425, 426, 427, 428, 429, 430, 431, 432
*Element, type=C3D8, elset=E55
55, 433, 434, 435, 436, 437, 438, 439, 440
*Element, type=C3D8, elset=E56
56, 441, 442, 443, 444, 445, 446, 447, 448
*Element, type=C3D8, elset=E57
57, 449, 450, 451, 452, 453, 454, 455, 456
*Element, type=C3D8, elset=E58
58, 457, 458, 459, 460, 461, 462, 463, 464
*Element, type=C3D8, elset=E59
59, 465, 466, 467, 468, 469, 470, 471, 472
*Element, type=C3D8, elset=E60
60, 473, 474, 475, 476, 477, 478, 479, 480
*Orientation, name=BASE, system=RECTANGULAR
0.9205048534524404, 0.39073112848927377, 0.0, -0.39073112848927377, 0.9205048534524404, 0.0
3, 0.
*Solid Section, elset=E1, material=M1, orientation=BASE
1.,
*Solid Section, elset=E2, material=M2, orientation=BASE
1.,
*Solid Section, elset=E3, material=M3, orientation=BASE
1.,
*Solid Section, elset=E4, material=M4, orientation=BASE
1.,
*Solid Section, elset=E5, material=M5, orientation=BASE
1.,
*Solid Section, elset=E6, material=M6, orientation=BASE
1.,
*Solid Section, elset=E7, material=M7, orientation=BASE
1.,
*Solid Section, elset=E8, material=M8, orientation=BASE
1.,
*Solid Section, elset=E9, material=M9, orientation=BASE
1.,
*Solid Section, elset=E10, material=M10, orientation=BASE
1.,
*Solid Section, elset=E11, material=M11, orientation=BASE
1.,
*Solid Section, elset=E12, material=M12, orientation=BASE
1.,
*Solid Section, elset=E13, material=M13, orientation=BASE
1.,
*Solid Section, elset=E14, material=M14, orientation=BASE
1.,
*Solid Section, elset=E15, material=M15, orientation=BASE
1.,
*Solid Section, elset=E16, material=M16, orientation=BASE
1.,
*Solid Section, elset=E17, material=M17, orientation=BASE
1.,
*Solid Section, elset=E18, material=M18, orientation=BASE
1.,
*Solid Section, elset=E19, material=M19, orientation=BASE
1.,
*Solid Section, elset=E20, material=M20, orientation=BASE
1.,
*Solid Section, elset=E21, material=M21, orientation=BASE
1.,
*Solid Section, elset=E22, material=M22, orientation=BASE
1.,
*Solid Section, elset=E23, material=M23, orientation=BASE
1.,
*Solid Section, elset=E24, material=M24, orientation=BASE
1.,
*Solid Section, elset=E25, material=M25, orientation=BASE
1.,
*Solid Section, elset=E26, material=M26, orientation=BASE
1.,
*Solid Section, elset=E27, material=M27, orientation=BASE
1.,
*Solid Section, elset=E28, material=M28, orientation=BASE
1.,
*Solid Section, elset=E29, material=M29, orientation=BASE
1.,
*Solid Section, elset=E30, material=M30, orientation=BASE
1.,
*Solid Section, elset=E31, material=M31, orientation=BASE
1.,
*Solid Section, elset=E32, material=M32, orientation=BASE
1.,
*Solid Section, elset=E33, material=M33, orientation=BASE
1.,
*Solid Section, elset=E34, material=M34, orientation=BASE
1.,
*Solid Section, elset=E35, material=M35, orientation=BASE
1.,
*Solid Section, elset=E36, material=M36, orientation=BASE
1.,
*Solid Section, elset=E37, material=M37, orientation=BASE
1.,
*Solid Section, elset=E38, material=M38, orientation=BASE
1.,
*Solid Section, elset=E39, material=M39, orientation=BASE
1.,
*Solid Section, elset=E40, material=M40, orientation=BASE
1.,
*Solid Section, elset=E41, material=M41, orientation=BASE
1.,
*Solid Section, elset=E42, material=M42, orientation=BASE
1.,
*Solid Section, elset=E43, material=M43, orientation=BASE
1.,
*Solid Section, elset=E44, material=M44, orientation=BASE
1.,
*Solid Section, elset=E45, material=M45, orientation=BASE
1.,
*Solid Section, elset=E46, material=M46, orientation=BASE
1.,
*Solid Section, elset=E47, material=M47, orientation=BASE
1.,
*Solid Section, elset=E48, material=M48, orientation=BASE
1.,
*Solid Section, elset=E49, material=M49, orientation=BASE
1.,
*Solid Section, elset=E50, material=M50, orientation=BASE
1.,
*Solid Section, elset=E51, material=M51, orientation=BASE
1.,
*Solid Section, elset=E52, material=M52, orientation=BASE
1.,
*Solid Section, elset=E53, material=M53, orientation=BASE
1.,
*Solid Section, elset=E54, material=M54, orientation=BASE
1.,
*Solid Section, elset=E55, material=M55, orientation=BASE
1.,
*Solid Section, elset=E56, material=M56, orientation=BASE
1.,
*Solid Section, elset=E57, material=M57, orientation=BASE
1.,
*Solid Section, elset=E58, material=M58, orientation=BASE
1.,
*Solid Section, elset=E59, material=M59, orientation=BASE
1.,
*Solid Section, elset=E60, material=M60, orientation=BASE
1.,
*Material, name=M1
*Depvar
84,
*User Material, constants=33, unsymm
141000 ,11400 ,11400 ,0.28 ,0.28 ,0.28 ,7100 ,7100
7100 ,2080 ,1250 ,60 ,290 ,110 ,110 ,110
133 ,10 ,0.5 ,1.6 ,1 ,0.9 ,0.5 ,0.0001
0.005 ,0 ,0.5 ,0.95 ,0.85 ,0 ,0 ,202609
2
*Material, name=M2
*Elastic, type=ENGINEERING CONSTANTS
141000 ,11400 ,11400 ,0.28 ,0.28 ,0.28 ,7100 ,7100
7100
*Material, name=M3
*Depvar
84,
*User Material, constants=33, unsymm
141000 ,11400 ,11400 ,0.28 ,0.28 ,0.28 ,7100 ,7100
7100 ,2080 ,1250 ,60 ,290 ,110 ,110 ,110
133 ,10 ,0.5 ,1.6 ,1 ,0.9 ,0.5 ,0.0001
0.005 ,0 ,0.5 ,0.95 ,0.85 ,0 ,0 ,202609
2
*Material, name=M4
*Elastic, type=ENGINEERING CONSTANTS
141000 ,11400 ,11400 ,0.28 ,0.28 ,0.28 ,7100 ,7100
7100
*Material, name=M5
*Depvar
84,
*User Material, constants=33, unsymm
141000 ,11400 ,11400 ,0.28 ,0.28 ,0.28 ,7100 ,7100
7100 ,2080 ,1250 ,60 ,290 ,110 ,110 ,110
133 ,10 ,0.5 ,1.6 ,1 ,0.9 ,0.5 ,0.0001
0.005 ,0 ,0.5 ,0.95 ,0.85 ,0 ,0 ,202609
2
*Material, name=M6
*Elastic, type=ENGINEERING CONSTANTS
141000 ,11400 ,11400 ,0.28 ,0.28 ,0.28 ,7100 ,7100
7100
*Material, name=M7
*Depvar
84,
*User Material, constants=33, unsymm
141000 ,11400 ,11400 ,0.28 ,0.28 ,0.28 ,7100 ,7100
7100 ,2080 ,1250 ,60 ,290 ,110 ,110 ,110
133 ,10 ,0.5 ,1.6 ,1 ,0.9 ,0.5 ,0.0001
0.005 ,0 ,0.5 ,0.95 ,0.85 ,0 ,0 ,202609
2
*Material, name=M8
*Elastic, type=ENGINEERING CONSTANTS
141000 ,11400 ,11400 ,0.28 ,0.28 ,0.28 ,7100 ,7100
7100
*Material, name=M9
*Depvar
84,
*User Material, constants=33, unsymm
141000 ,11400 ,11400 ,0.28 ,0.28 ,0.28 ,7100 ,7100
7100 ,2080 ,1250 ,60 ,290 ,110 ,110 ,110
133 ,10 ,0.5 ,1.6 ,1 ,0.9 ,0.5 ,0.0001
0.005 ,0 ,0.5 ,0.95 ,0.85 ,0 ,0 ,202609
2
*Material, name=M10
*Elastic, type=ENGINEERING CONSTANTS
141000 ,11400 ,11400 ,0.28 ,0.28 ,0.28 ,7100 ,7100
7100
*Material, name=M11
*Depvar
84,
*User Material, constants=33, unsymm
141000 ,11400 ,11400 ,0.28 ,0.28 ,0.28 ,7100 ,7100
7100 ,2080 ,1250 ,60 ,290 ,110 ,110 ,110
133 ,10 ,0.5 ,1.6 ,1 ,0.9 ,0.5 ,0.0001
0.005 ,0 ,0.5 ,0.95 ,0.85 ,0 ,0 ,202609
2
*Material, name=M12
*Elastic, type=ENGINEERING CONSTANTS
141000 ,11400 ,11400 ,0.28 ,0.28 ,0.28 ,7100 ,7100
7100
*Material, name=M13
*Depvar
84,
*User Material, constants=33, unsymm
141000 ,11400 ,11400 ,0.28 ,0.28 ,0.28 ,7100 ,7100
7100 ,2080 ,1250 ,60 ,290 ,110 ,110 ,110
133 ,10 ,0.5 ,1.6 ,1 ,0.9 ,0.5 ,0.0001
0.005 ,15 ,0.5 ,0.95 ,0.85 ,0 ,0 ,202609
2
*Material, name=M14
*Elastic, type=ENGINEERING CONSTANTS
116939.71333893 ,11903.304200477 ,11528.484938959 ,0.82978222669538 ,0.11268277458042 ,0.26296876420095 ,14513.328867386 ,7100
7100
*Material, name=M15
*Depvar
84,
*User Material, constants=33, unsymm
141000 ,11400 ,11400 ,0.28 ,0.28 ,0.28 ,7100 ,7100
7100 ,2080 ,1250 ,60 ,290 ,110 ,110 ,110
133 ,10 ,0.5 ,1.6 ,1 ,0.9 ,0.5 ,0.0001
0.005 ,15 ,0.5 ,0.95 ,0.85 ,0 ,0 ,202609
2
*Material, name=M16
*Elastic, type=ENGINEERING CONSTANTS
116939.71333893 ,11903.304200477 ,11528.484938959 ,0.82978222669538 ,0.11268277458042 ,0.26296876420095 ,14513.328867386 ,7100
7100
*Material, name=M17
*Depvar
84,
*User Material, constants=33, unsymm
141000 ,11400 ,11400 ,0.28 ,0.28 ,0.28 ,7100 ,7100
7100 ,2080 ,1250 ,60 ,290 ,110 ,110 ,110
133 ,10 ,0.5 ,1.6 ,1 ,0.9 ,0.5 ,0.0001
0.005 ,15 ,0.5 ,0.95 ,0.85 ,0 ,0 ,202609
2
*Material, name=M18
*Elastic, type=ENGINEERING CONSTANTS
116939.71333893 ,11903.304200477 ,11528.484938959 ,0.82978222669538 ,0.11268277458042 ,0.26296876420095 ,14513.328867386 ,7100
7100
*Material, name=M19
*Depvar
84,
*User Material, constants=33, unsymm
141000 ,11400 ,11400 ,0.28 ,0.28 ,0.28 ,7100 ,7100
7100 ,2080 ,1250 ,60 ,290 ,110 ,110 ,110
133 ,10 ,0.5 ,1.6 ,1 ,0.9 ,0.5 ,0.0001
0.005 ,15 ,0.5 ,0.95 ,0.85 ,0 ,0 ,202609
2
*Material, name=M20
*Elastic, type=ENGINEERING CONSTANTS
116939.71333893 ,11903.304200477 ,11528.484938959 ,0.82978222669538 ,0.11268277458042 ,0.26296876420095 ,14513.328867386 ,7100
7100
*Material, name=M21
*Depvar
84,
*User Material, constants=33, unsymm
141000 ,11400 ,11400 ,0.28 ,0.28 ,0.28 ,7100 ,7100
7100 ,2080 ,1250 ,60 ,290 ,110 ,110 ,110
133 ,10 ,0.5 ,1.6 ,1 ,0.9 ,0.5 ,0.0001
0.005 ,15 ,0.5 ,0.95 ,0.85 ,0 ,0 ,202609
2
*Material, name=M22
*Elastic, type=ENGINEERING CONSTANTS
116939.71333893 ,11903.304200477 ,11528.484938959 ,0.82978222669538 ,0.11268277458042 ,0.26296876420095 ,14513.328867386 ,7100
7100
*Material, name=M23
*Depvar
84,
*User Material, constants=33, unsymm
141000 ,11400 ,11400 ,0.28 ,0.28 ,0.28 ,7100 ,7100
7100 ,2080 ,1250 ,60 ,290 ,110 ,110 ,110
133 ,10 ,0.5 ,1.6 ,1 ,0.9 ,0.5 ,0.0001
0.005 ,15 ,0.5 ,0.95 ,0.85 ,0 ,0 ,202609
2
*Material, name=M24
*Elastic, type=ENGINEERING CONSTANTS
116939.71333893 ,11903.304200477 ,11528.484938959 ,0.82978222669538 ,0.11268277458042 ,0.26296876420095 ,14513.328867386 ,7100
7100
*Material, name=M25
*Depvar
84,
*User Material, constants=33, unsymm
141000 ,11400 ,11400 ,0.28 ,0.28 ,0.28 ,7100 ,7100
7100 ,2080 ,1250 ,60 ,290 ,110 ,110 ,110
133 ,10 ,0.5 ,1.6 ,1 ,0.9 ,0.5 ,0.0001
0.005 ,37 ,0.5 ,0.95 ,0.85 ,0 ,0 ,202609
2
*Material, name=M26
*Elastic, type=ENGINEERING CONSTANTS
37389.831168139 ,17409.759542221 ,12033.50247308 ,0.97675589467341 ,0.027298156325361 ,0.16233489703478 ,34500.376599108 ,7100
7100
*Material, name=M27
*Depvar
84,
*User Material, constants=33, unsymm
141000 ,11400 ,11400 ,0.28 ,0.28 ,0.28 ,7100 ,7100
7100 ,2080 ,1250 ,60 ,290 ,110 ,110 ,110
133 ,10 ,0.5 ,1.6 ,1 ,0.9 ,0.5 ,0.0001
0.005 ,37 ,0.5 ,0.95 ,0.85 ,0 ,0 ,202609
2
*Material, name=M28
*Elastic, type=ENGINEERING CONSTANTS
37389.831168139 ,17409.759542221 ,12033.50247308 ,0.97675589467341 ,0.027298156325361 ,0.16233489703478 ,34500.376599108 ,7100
7100
*Material, name=M29
*Depvar
84,
*User Material, constants=33, unsymm
141000 ,11400 ,11400 ,0.28 ,0.28 ,0.28 ,7100 ,7100
7100 ,2080 ,1250 ,60 ,290 ,110 ,110 ,110
133 ,10 ,0.5 ,1.6 ,1 ,0.9 ,0.5 ,0.0001
0.005 ,37 ,0.5 ,0.95 ,0.85 ,0 ,0 ,202609
2
*Material, name=M30
*Elastic, type=ENGINEERING CONSTANTS
37389.831168139 ,17409.759542221 ,12033.50247308 ,0.97675589467341 ,0.027298156325361 ,0.16233489703478 ,34500.376599108 ,7100
7100
*Material, name=M31
*Depvar
84,
*User Material, constants=33, unsymm
141000 ,11400 ,11400 ,0.28 ,0.28 ,0.28 ,7100 ,7100
7100 ,2080 ,1250 ,60 ,290 ,110 ,110 ,110
133 ,10 ,0.5 ,1.6 ,1 ,0.9 ,0.5 ,0.0001
0.005 ,37 ,0.5 ,0.95 ,0.85 ,0 ,0 ,202609
2
*Material, name=M32
*Elastic, type=ENGINEERING CONSTANTS
37389.831168139 ,17409.759542221 ,12033.50247308 ,0.97675589467341 ,0.027298156325361 ,0.16233489703478 ,34500.376599108 ,7100
7100
*Material, name=M33
*Depvar
84,
*User Material, constants=33, unsymm
141000 ,11400 ,11400 ,0.28 ,0.28 ,0.28 ,7100 ,7100
7100 ,2080 ,1250 ,60 ,290 ,110 ,110 ,110
133 ,10 ,0.5 ,1.6 ,1 ,0.9 ,0.5 ,0.0001
0.005 ,37 ,0.5 ,0.95 ,0.85 ,0 ,0 ,202609
2
*Material, name=M34
*Elastic, type=ENGINEERING CONSTANTS
37389.831168139 ,17409.759542221 ,12033.50247308 ,0.97675589467341 ,0.027298156325361 ,0.16233489703478 ,34500.376599108 ,7100
7100
*Material, name=M35
*Depvar
84,
*User Material, constants=33, unsymm
141000 ,11400 ,11400 ,0.28 ,0.28 ,0.28 ,7100 ,7100
7100 ,2080 ,1250 ,60 ,290 ,110 ,110 ,110
133 ,10 ,0.5 ,1.6 ,1 ,0.9 ,0.5 ,0.0001
0.005 ,37 ,0.5 ,0.95 ,0.85 ,0 ,0 ,202609
2
*Material, name=M36
*Elastic, type=ENGINEERING CONSTANTS
37389.831168139 ,17409.759542221 ,12033.50247308 ,0.97675589467341 ,0.027298156325361 ,0.16233489703478 ,34500.376599108 ,7100
7100
*Material, name=M37
*Depvar
84,
*User Material, constants=33, unsymm
141000 ,11400 ,11400 ,0.28 ,0.28 ,0.28 ,7100 ,7100
7100 ,2080 ,1250 ,60 ,290 ,110 ,110 ,110
133 ,10 ,0.5 ,1.6 ,1 ,0.9 ,0.5 ,0.0001
0.005 ,45 ,0.5 ,0.95 ,0.85 ,0 ,0 ,202609
2
*Material, name=M38
*Elastic, type=ENGINEERING CONSTANTS
24114.276037564 ,24114.276037564 ,12112.411343718 ,0.6981884533496 ,0.097915454631934 ,0.097915454631934 ,36753.315469544 ,7100
7100
*Material, name=M39
*Depvar
84,
*User Material, constants=33, unsymm
141000 ,11400 ,11400 ,0.28 ,0.28 ,0.28 ,7100 ,7100
7100 ,2080 ,1250 ,60 ,290 ,110 ,110 ,110
133 ,10 ,0.5 ,1.6 ,1 ,0.9 ,0.5 ,0.0001
0.005 ,45 ,0.5 ,0.95 ,0.85 ,0 ,0 ,202609
2
*Material, name=M40
*Elastic, type=ENGINEERING CONSTANTS
24114.276037564 ,24114.276037564 ,12112.411343718 ,0.6981884533496 ,0.097915454631934 ,0.097915454631934 ,36753.315469544 ,7100
7100
*Material, name=M41
*Depvar
84,
*User Material, constants=33, unsymm
141000 ,11400 ,11400 ,0.28 ,0.28 ,0.28 ,7100 ,7100
7100 ,2080 ,1250 ,60 ,290 ,110 ,110 ,110
133 ,10 ,0.5 ,1.6 ,1 ,0.9 ,0.5 ,0.0001
0.005 ,45 ,0.5 ,0.95 ,0.85 ,0 ,0 ,202609
2
*Material, name=M42
*Elastic, type=ENGINEERING CONSTANTS
24114.276037564 ,24114.276037564 ,12112.411343718 ,0.6981884533496 ,0.097915454631934 ,0.097915454631934 ,36753.315469544 ,7100
7100
*Material, name=M43
*Depvar
84,
*User Material, constants=33, unsymm
141000 ,11400 ,11400 ,0.28 ,0.28 ,0.28 ,7100 ,7100
7100 ,2080 ,1250 ,60 ,290 ,110 ,110 ,110
133 ,10 ,0.5 ,1.6 ,1 ,0.9 ,0.5 ,0.0001
0.005 ,45 ,0.5 ,0.95 ,0.85 ,0 ,0 ,202609
2
*Material, name=M44
*Elastic, type=ENGINEERING CONSTANTS
24114.276037564 ,24114.276037564 ,12112.411343718 ,0.6981884533496 ,0.097915454631934 ,0.097915454631934 ,36753.315469544 ,7100
7100
*Material, name=M45
*Depvar
84,
*User Material, constants=33, unsymm
141000 ,11400 ,11400 ,0.28 ,0.28 ,0.28 ,7100 ,7100
7100 ,2080 ,1250 ,60 ,290 ,110 ,110 ,110
133 ,10 ,0.5 ,1.6 ,1 ,0.9 ,0.5 ,0.0001
0.005 ,45 ,0.5 ,0.95 ,0.85 ,0 ,0 ,202609
2
*Material, name=M46
*Elastic, type=ENGINEERING CONSTANTS
24114.276037564 ,24114.276037564 ,12112.411343718 ,0.6981884533496 ,0.097915454631934 ,0.097915454631934 ,36753.315469544 ,7100
7100
*Material, name=M47
*Depvar
84,
*User Material, constants=33, unsymm
141000 ,11400 ,11400 ,0.28 ,0.28 ,0.28 ,7100 ,7100
7100 ,2080 ,1250 ,60 ,290 ,110 ,110 ,110
133 ,10 ,0.5 ,1.6 ,1 ,0.9 ,0.5 ,0.0001
0.005 ,45 ,0.5 ,0.95 ,0.85 ,0 ,0 ,202609
2
*Material, name=M48
*Elastic, type=ENGINEERING CONSTANTS
24114.276037564 ,24114.276037564 ,12112.411343718 ,0.6981884533496 ,0.097915454631934 ,0.097915454631934 ,36753.315469544 ,7100
7100
*Material, name=M49
*Depvar
84,
*User Material, constants=33, unsymm
141000 ,11400 ,11400 ,0.28 ,0.28 ,0.28 ,7100 ,7100
7100 ,2080 ,1250 ,60 ,290 ,110 ,110 ,110
133 ,10 ,0.5 ,1.6 ,1 ,0.9 ,0.5 ,0.0001
0.005 ,90 ,0.5 ,0.95 ,0.85 ,0 ,0 ,202609
2
*Material, name=M50
*Elastic, type=ENGINEERING CONSTANTS
11400 ,141000 ,11400 ,0.02263829787234 ,0.28 ,0.28 ,7100 ,7100
7100
*Material, name=M51
*Depvar
84,
*User Material, constants=33, unsymm
141000 ,11400 ,11400 ,0.28 ,0.28 ,0.28 ,7100 ,7100
7100 ,2080 ,1250 ,60 ,290 ,110 ,110 ,110
133 ,10 ,0.5 ,1.6 ,1 ,0.9 ,0.5 ,0.0001
0.005 ,90 ,0.5 ,0.95 ,0.85 ,0 ,0 ,202609
2
*Material, name=M52
*Elastic, type=ENGINEERING CONSTANTS
11400 ,141000 ,11400 ,0.02263829787234 ,0.28 ,0.28 ,7100 ,7100
7100
*Material, name=M53
*Depvar
84,
*User Material, constants=33, unsymm
141000 ,11400 ,11400 ,0.28 ,0.28 ,0.28 ,7100 ,7100
7100 ,2080 ,1250 ,60 ,290 ,110 ,110 ,110
133 ,10 ,0.5 ,1.6 ,1 ,0.9 ,0.5 ,0.0001
0.005 ,90 ,0.5 ,0.95 ,0.85 ,0 ,0 ,202609
2
*Material, name=M54
*Elastic, type=ENGINEERING CONSTANTS
11400 ,141000 ,11400 ,0.02263829787234 ,0.28 ,0.28 ,7100 ,7100
7100
*Material, name=M55
*Depvar
84,
*User Material, constants=33, unsymm
141000 ,11400 ,11400 ,0.28 ,0.28 ,0.28 ,7100 ,7100
7100 ,2080 ,1250 ,60 ,290 ,110 ,110 ,110
133 ,10 ,0.5 ,1.6 ,1 ,0.9 ,0.5 ,0.0001
0.005 ,90 ,0.5 ,0.95 ,0.85 ,0 ,0 ,202609
2
*Material, name=M56
*Elastic, type=ENGINEERING CONSTANTS
11400 ,141000 ,11400 ,0.02263829787234 ,0.28 ,0.28 ,7100 ,7100
7100
*Material, name=M57
*Depvar
84,
*User Material, constants=33, unsymm
141000 ,11400 ,11400 ,0.28 ,0.28 ,0.28 ,7100 ,7100
7100 ,2080 ,1250 ,60 ,290 ,110 ,110 ,110
133 ,10 ,0.5 ,1.6 ,1 ,0.9 ,0.5 ,0.0001
0.005 ,90 ,0.5 ,0.95 ,0.85 ,0 ,0 ,202609
2
*Material, name=M58
*Elastic, type=ENGINEERING CONSTANTS
11400 ,141000 ,11400 ,0.02263829787234 ,0.28 ,0.28 ,7100 ,7100
7100
*Material, name=M59
*Depvar
84,
*User Material, constants=33, unsymm
141000 ,11400 ,11400 ,0.28 ,0.28 ,0.28 ,7100 ,7100
7100 ,2080 ,1250 ,60 ,290 ,110 ,110 ,110
133 ,10 ,0.5 ,1.6 ,1 ,0.9 ,0.5 ,0.0001
0.005 ,90 ,0.5 ,0.95 ,0.85 ,0 ,0 ,202609
2
*Material, name=M60
*Elastic, type=ENGINEERING CONSTANTS
11400 ,141000 ,11400 ,0.02263829787234 ,0.28 ,0.28 ,7100 ,7100
7100
*Step, name=LOAD, inc=1000, nlgeom=NO
*Static
0.01, 1., 1e-8, 0.01
*Boundary
1, 1, 1, 0
1, 2, 2, 0
1, 3, 3, 0
2, 1, 1, 1.694658370459e-06
2, 2, 2, 7.1933980033865e-07
2, 3, 3, 0
3, 1, 1, 2.4139981707976e-06
3, 2, 2, 1.0246814298797e-06
3, 3, 3, 0
4, 1, 1, 7.1933980033865e-07
4, 2, 2, 3.05341629541e-07
4, 3, 3, 0
5, 1, 1, 0
5, 2, 2, 0
5, 3, 3, 0
6, 1, 1, 1.694658370459e-06
6, 2, 2, 7.1933980033865e-07
6, 3, 3, 0
7, 1, 1, 2.4139981707976e-06
7, 2, 2, 1.0246814298797e-06
7, 3, 3, 0
8, 1, 1, 7.1933980033865e-07
8, 2, 2, 3.05341629541e-07
8, 3, 3, 0
9, 1, 1, 0
9, 2, 2, 0
9, 3, 3, 0
10, 1, 1, 1.694658370459e-06
10, 2, 2, 7.1933980033865e-07
10, 3, 3, 0
11, 1, 1, 2.4139981707976e-06
11, 2, 2, 1.0246814298797e-06
11, 3, 3, 0
12, 1, 1, 7.1933980033865e-07
12, 2, 2, 3.05341629541e-07
12, 3, 3, 0
13, 1, 1, 0
13, 2, 2, 0
13, 3, 3, 0
14, 1, 1, 1.694658370459e-06
14, 2, 2, 7.1933980033865e-07
14, 3, 3, 0
15, 1, 1, 2.4139981707976e-06
15, 2, 2, 1.0246814298797e-06
15, 3, 3, 0
16, 1, 1, 7.1933980033865e-07
16, 2, 2, 3.05341629541e-07
16, 3, 3, 0
17, 1, 1, 0
17, 2, 2, 0
17, 3, 3, 0
18, 1, 1, 3.05341629541e-07
18, 2, 2, -7.1933980033865e-07
18, 3, 3, 0
19, 1, 1, -4.1399817079765e-07
19, 2, 2, 9.7531857012035e-07
19, 3, 3, 0
20, 1, 1, -7.1933980033865e-07
20, 2, 2, 1.694658370459e-06
20, 3, 3, 0
21, 1, 1, 0
21, 2, 2, 0
21, 3, 3, 0
22, 1, 1, 3.05341629541e-07
22, 2, 2, -7.1933980033865e-07
22, 3, 3, 0
23, 1, 1, -4.1399817079765e-07
23, 2, 2, 9.7531857012035e-07
23, 3, 3, 0
24, 1, 1, -7.1933980033865e-07
24, 2, 2, 1.694658370459e-06
24, 3, 3, 0
25, 1, 1, 0
25, 2, 2, 0
25, 3, 3, 0
26, 1, 1, 3.05341629541e-07
26, 2, 2, -7.1933980033865e-07
26, 3, 3, 0
27, 1, 1, -4.1399817079765e-07
27, 2, 2, 9.7531857012035e-07
27, 3, 3, 0
28, 1, 1, -7.1933980033865e-07
28, 2, 2, 1.694658370459e-06
28, 3, 3, 0
29, 1, 1, 0
29, 2, 2, 0
29, 3, 3, 0
30, 1, 1, 3.05341629541e-07
30, 2, 2, -7.1933980033865e-07
30, 3, 3, 0
31, 1, 1, -4.1399817079765e-07
31, 2, 2, 9.7531857012035e-07
31, 3, 3, 0
32, 1, 1, -7.1933980033865e-07
32, 2, 2, 1.694658370459e-06
32, 3, 3, 0
33, 1, 1, 0
33, 2, 2, 0
33, 3, 3, 0
34, 1, 1, 0
34, 2, 2, 0
34, 3, 3, 0
35, 1, 1, 0
35, 2, 2, 0
35, 3, 3, 0
36, 1, 1, 0
36, 2, 2, 0
36, 3, 3, 0
37, 1, 1, 0
37, 2, 2, 0
37, 3, 3, 2e-06
38, 1, 1, 0
38, 2, 2, 0
38, 3, 3, 2e-06
39, 1, 1, 0
39, 2, 2, 0
39, 3, 3, 2e-06
40, 1, 1, 0
40, 2, 2, 0
40, 3, 3, 2e-06
41, 1, 1, 0
41, 2, 2, 0
41, 3, 3, 0
42, 1, 1, 0
42, 2, 2, 0
42, 3, 3, 0
43, 1, 1, 0
43, 2, 2, 0
43, 3, 3, 0
44, 1, 1, 0
44, 2, 2, 0
44, 3, 3, 0
45, 1, 1, 0
45, 2, 2, 0
45, 3, 3, 2e-06
46, 1, 1, 0
46, 2, 2, 0
46, 3, 3, 2e-06
47, 1, 1, 0
47, 2, 2, 0
47, 3, 3, 2e-06
48, 1, 1, 0
48, 2, 2, 0
48, 3, 3, 2e-06
49, 1, 1, 0
49, 2, 2, 0
49, 3, 3, 0
50, 1, 1, -7.1933980033865e-07
50, 2, 2, 6.94658370459e-07
50, 3, 3, 0
51, 1, 1, -2.4681429879654e-08
51, 2, 2, 1.4139981707976e-06
51, 3, 3, 0
52, 1, 1, 6.94658370459e-07
52, 2, 2, 7.1933980033865e-07
52, 3, 3, 0
53, 1, 1, 0
53, 2, 2, 0
53, 3, 3, 0
54, 1, 1, -7.1933980033865e-07
54, 2, 2, 6.94658370459e-07
54, 3, 3, 0
55, 1, 1, -2.4681429879654e-08
55, 2, 2, 1.4139981707976e-06
55, 3, 3, 0
56, 1, 1, 6.94658370459e-07
56, 2, 2, 7.1933980033865e-07
56, 3, 3, 0
57, 1, 1, 0
57, 2, 2, 0
57, 3, 3, 0
58, 1, 1, -7.1933980033865e-07
58, 2, 2, 6.94658370459e-07
58, 3, 3, 0
59, 1, 1, -2.4681429879654e-08
59, 2, 2, 1.4139981707976e-06
59, 3, 3, 0
60, 1, 1, 6.94658370459e-07
60, 2, 2, 7.1933980033865e-07
60, 3, 3, 0
61, 1, 1, 0
61, 2, 2, 0
61, 3, 3, 0
62, 1, 1, -7.1933980033865e-07
62, 2, 2, 6.94658370459e-07
62, 3, 3, 0
63, 1, 1, -2.4681429879654e-08
63, 2, 2, 1.4139981707976e-06
63, 3, 3, 0
64, 1, 1, 6.94658370459e-07
64, 2, 2, 7.1933980033865e-07
64, 3, 3, 0
65, 1, 1, 0
65, 2, 2, 0
65, 3, 3, 0
66, 1, 1, 0
66, 2, 2, 0
66, 3, 3, 9.2050485345244e-07
67, 1, 1, 0
67, 2, 2, 0
67, 3, 3, 1.3112359819417e-06
68, 1, 1, 0
68, 2, 2, 0
68, 3, 3, 3.9073112848927e-07
69, 1, 1, 9.2050485345244e-07
69, 2, 2, 3.9073112848927e-07
69, 3, 3, 0
70, 1, 1, 9.2050485345244e-07
70, 2, 2, 3.9073112848927e-07
70, 3, 3, 9.2050485345244e-07
71, 1, 1, 9.2050485345244e-07
71, 2, 2, 3.9073112848927e-07
71, 3, 3, 1.3112359819417e-06
72, 1, 1, 9.2050485345244e-07
72, 2, 2, 3.9073112848927e-07
72, 3, 3, 3.9073112848927e-07
73, 1, 1, 0
73, 2, 2, 0
73, 3, 3, 0
74, 1, 1, 0
74, 2, 2, 0
74, 3, 3, 9.2050485345244e-07
75, 1, 1, 0
75, 2, 2, 0
75, 3, 3, 1.3112359819417e-06
76, 1, 1, 0
76, 2, 2, 0
76, 3, 3, 3.9073112848927e-07
77, 1, 1, 9.2050485345244e-07
77, 2, 2, 3.9073112848927e-07
77, 3, 3, 0
78, 1, 1, 9.2050485345244e-07
78, 2, 2, 3.9073112848927e-07
78, 3, 3, 9.2050485345244e-07
79, 1, 1, 9.2050485345244e-07
79, 2, 2, 3.9073112848927e-07
79, 3, 3, 1.3112359819417e-06
80, 1, 1, 9.2050485345244e-07
80, 2, 2, 3.9073112848927e-07
80, 3, 3, 3.9073112848927e-07
81, 1, 1, 0
81, 2, 2, 0
81, 3, 3, 0
82, 1, 1, 0
82, 2, 2, 0
82, 3, 3, -3.9073112848927e-07
83, 1, 1, 0
83, 2, 2, 0
83, 3, 3, 5.2977372496317e-07
84, 1, 1, 0
84, 2, 2, 0
84, 3, 3, 9.2050485345244e-07
85, 1, 1, -3.9073112848927e-07
85, 2, 2, 9.2050485345244e-07
85, 3, 3, 0
86, 1, 1, -3.9073112848927e-07
86, 2, 2, 9.2050485345244e-07
86, 3, 3, -3.9073112848927e-07
87, 1, 1, -3.9073112848927e-07
87, 2, 2, 9.2050485345244e-07
87, 3, 3, 5.2977372496317e-07
88, 1, 1, -3.9073112848927e-07
88, 2, 2, 9.2050485345244e-07
88, 3, 3, 9.2050485345244e-07
89, 1, 1, 0
89, 2, 2, 0
89, 3, 3, 0
90, 1, 1, 0
90, 2, 2, 0
90, 3, 3, -3.9073112848927e-07
91, 1, 1, 0
91, 2, 2, 0
91, 3, 3, 5.2977372496317e-07
92, 1, 1, 0
92, 2, 2, 0
92, 3, 3, 9.2050485345244e-07
93, 1, 1, -3.9073112848927e-07
93, 2, 2, 9.2050485345244e-07
93, 3, 3, 0
94, 1, 1, -3.9073112848927e-07
94, 2, 2, 9.2050485345244e-07
94, 3, 3, -3.9073112848927e-07
95, 1, 1, -3.9073112848927e-07
95, 2, 2, 9.2050485345244e-07
95, 3, 3, 5.2977372496317e-07
96, 1, 1, -3.9073112848927e-07
96, 2, 2, 9.2050485345244e-07
96, 3, 3, 9.2050485345244e-07
97, 1, 1, 0
97, 2, 2, 0
97, 3, 3, 0
98, 1, 1, 1.694658370459e-06
98, 2, 2, 7.1933980033865e-07
98, 3, 3, 0
99, 1, 1, 2.4139981707976e-06
99, 2, 2, 1.0246814298797e-06
99, 3, 3, 0
100, 1, 1, 7.1933980033865e-07
100, 2, 2, 3.05341629541e-07
100, 3, 3, 0
101, 1, 1, 0
101, 2, 2, 0
101, 3, 3, 0
102, 1, 1, 1.694658370459e-06
102, 2, 2, 7.1933980033865e-07
102, 3, 3, 0
103, 1, 1, 2.4139981707976e-06
103, 2, 2, 1.0246814298797e-06
103, 3, 3, 0
104, 1, 1, 7.1933980033865e-07
104, 2, 2, 3.05341629541e-07
104, 3, 3, 0
105, 1, 1, 0
105, 2, 2, 0
105, 3, 3, 0
106, 1, 1, 1.694658370459e-06
106, 2, 2, 7.1933980033865e-07
106, 3, 3, 0
107, 1, 1, 2.4139981707976e-06
107, 2, 2, 1.0246814298797e-06
107, 3, 3, 0
108, 1, 1, 7.1933980033865e-07
108, 2, 2, 3.05341629541e-07
108, 3, 3, 0
109, 1, 1, 0
109, 2, 2, 0
109, 3, 3, 0
110, 1, 1, 1.694658370459e-06
110, 2, 2, 7.1933980033865e-07
110, 3, 3, 0
111, 1, 1, 2.4139981707976e-06
111, 2, 2, 1.0246814298797e-06
111, 3, 3, 0
112, 1, 1, 7.1933980033865e-07
112, 2, 2, 3.05341629541e-07
112, 3, 3, 0
113, 1, 1, 0
113, 2, 2, 0
113, 3, 3, 0
114, 1, 1, 3.05341629541e-07
114, 2, 2, -7.1933980033865e-07
114, 3, 3, 0
115, 1, 1, -4.1399817079765e-07
115, 2, 2, 9.7531857012035e-07
115, 3, 3, 0
116, 1, 1, -7.1933980033865e-07
116, 2, 2, 1.694658370459e-06
116, 3, 3, 0
117, 1, 1, 0
117, 2, 2, 0
117, 3, 3, 0
118, 1, 1, 3.05341629541e-07
118, 2, 2, -7.1933980033865e-07
118, 3, 3, 0
119, 1, 1, -4.1399817079765e-07
119, 2, 2, 9.7531857012035e-07
119, 3, 3, 0
120, 1, 1, -7.1933980033865e-07
120, 2, 2, 1.694658370459e-06
120, 3, 3, 0
121, 1, 1, 0
121, 2, 2, 0
121, 3, 3, 0
122, 1, 1, 3.05341629541e-07
122, 2, 2, -7.1933980033865e-07
122, 3, 3, 0
123, 1, 1, -4.1399817079765e-07
123, 2, 2, 9.7531857012035e-07
123, 3, 3, 0
124, 1, 1, -7.1933980033865e-07
124, 2, 2, 1.694658370459e-06
124, 3, 3, 0
125, 1, 1, 0
125, 2, 2, 0
125, 3, 3, 0
126, 1, 1, 3.05341629541e-07
126, 2, 2, -7.1933980033865e-07
126, 3, 3, 0
127, 1, 1, -4.1399817079765e-07
127, 2, 2, 9.7531857012035e-07
127, 3, 3, 0
128, 1, 1, -7.1933980033865e-07
128, 2, 2, 1.694658370459e-06
128, 3, 3, 0
129, 1, 1, 0
129, 2, 2, 0
129, 3, 3, 0
130, 1, 1, 0
130, 2, 2, 0
130, 3, 3, 0
131, 1, 1, 0
131, 2, 2, 0
131, 3, 3, 0
132, 1, 1, 0
132, 2, 2, 0
132, 3, 3, 0
133, 1, 1, 0
133, 2, 2, 0
133, 3, 3, 2e-06
134, 1, 1, 0
134, 2, 2, 0
134, 3, 3, 2e-06
135, 1, 1, 0
135, 2, 2, 0
135, 3, 3, 2e-06
136, 1, 1, 0
136, 2, 2, 0
136, 3, 3, 2e-06
137, 1, 1, 0
137, 2, 2, 0
137, 3, 3, 0
138, 1, 1, 0
138, 2, 2, 0
138, 3, 3, 0
139, 1, 1, 0
139, 2, 2, 0
139, 3, 3, 0
140, 1, 1, 0
140, 2, 2, 0
140, 3, 3, 0
141, 1, 1, 0
141, 2, 2, 0
141, 3, 3, 2e-06
142, 1, 1, 0
142, 2, 2, 0
142, 3, 3, 2e-06
143, 1, 1, 0
143, 2, 2, 0
143, 3, 3, 2e-06
144, 1, 1, 0
144, 2, 2, 0
144, 3, 3, 2e-06
145, 1, 1, 0
145, 2, 2, 0
145, 3, 3, 0
146, 1, 1, -7.1933980033865e-07
146, 2, 2, 6.94658370459e-07
146, 3, 3, 0
147, 1, 1, -2.4681429879654e-08
147, 2, 2, 1.4139981707976e-06
147, 3, 3, 0
148, 1, 1, 6.94658370459e-07
148, 2, 2, 7.1933980033865e-07
148, 3, 3, 0
149, 1, 1, 0
149, 2, 2, 0
149, 3, 3, 0
150, 1, 1, -7.1933980033865e-07
150, 2, 2, 6.94658370459e-07
150, 3, 3, 0
151, 1, 1, -2.4681429879654e-08
151, 2, 2, 1.4139981707976e-06
151, 3, 3, 0
152, 1, 1, 6.94658370459e-07
152, 2, 2, 7.1933980033865e-07
152, 3, 3, 0
153, 1, 1, 0
153, 2, 2, 0
153, 3, 3, 0
154, 1, 1, -7.1933980033865e-07
154, 2, 2, 6.94658370459e-07
154, 3, 3, 0
155, 1, 1, -2.4681429879654e-08
155, 2, 2, 1.4139981707976e-06
155, 3, 3, 0
156, 1, 1, 6.94658370459e-07
156, 2, 2, 7.1933980033865e-07
156, 3, 3, 0
157, 1, 1, 0
157, 2, 2, 0
157, 3, 3, 0
158, 1, 1, -7.1933980033865e-07
158, 2, 2, 6.94658370459e-07
158, 3, 3, 0
159, 1, 1, -2.4681429879654e-08
159, 2, 2, 1.4139981707976e-06
159, 3, 3, 0
160, 1, 1, 6.94658370459e-07
160, 2, 2, 7.1933980033865e-07
160, 3, 3, 0
161, 1, 1, 0
161, 2, 2, 0
161, 3, 3, 0
162, 1, 1, 0
162, 2, 2, 0
162, 3, 3, 9.2050485345244e-07
163, 1, 1, 0
163, 2, 2, 0
163, 3, 3, 1.3112359819417e-06
164, 1, 1, 0
164, 2, 2, 0
164, 3, 3, 3.9073112848927e-07
165, 1, 1, 9.2050485345244e-07
165, 2, 2, 3.9073112848927e-07
165, 3, 3, 0
166, 1, 1, 9.2050485345244e-07
166, 2, 2, 3.9073112848927e-07
166, 3, 3, 9.2050485345244e-07
167, 1, 1, 9.2050485345244e-07
167, 2, 2, 3.9073112848927e-07
167, 3, 3, 1.3112359819417e-06
168, 1, 1, 9.2050485345244e-07
168, 2, 2, 3.9073112848927e-07
168, 3, 3, 3.9073112848927e-07
169, 1, 1, 0
169, 2, 2, 0
169, 3, 3, 0
170, 1, 1, 0
170, 2, 2, 0
170, 3, 3, 9.2050485345244e-07
171, 1, 1, 0
171, 2, 2, 0
171, 3, 3, 1.3112359819417e-06
172, 1, 1, 0
172, 2, 2, 0
172, 3, 3, 3.9073112848927e-07
173, 1, 1, 9.2050485345244e-07
173, 2, 2, 3.9073112848927e-07
173, 3, 3, 0
174, 1, 1, 9.2050485345244e-07
174, 2, 2, 3.9073112848927e-07
174, 3, 3, 9.2050485345244e-07
175, 1, 1, 9.2050485345244e-07
175, 2, 2, 3.9073112848927e-07
175, 3, 3, 1.3112359819417e-06
176, 1, 1, 9.2050485345244e-07
176, 2, 2, 3.9073112848927e-07
176, 3, 3, 3.9073112848927e-07
177, 1, 1, 0
177, 2, 2, 0
177, 3, 3, 0
178, 1, 1, 0
178, 2, 2, 0
178, 3, 3, -3.9073112848927e-07
179, 1, 1, 0
179, 2, 2, 0
179, 3, 3, 5.2977372496317e-07
180, 1, 1, 0
180, 2, 2, 0
180, 3, 3, 9.2050485345244e-07
181, 1, 1, -3.9073112848927e-07
181, 2, 2, 9.2050485345244e-07
181, 3, 3, 0
182, 1, 1, -3.9073112848927e-07
182, 2, 2, 9.2050485345244e-07
182, 3, 3, -3.9073112848927e-07
183, 1, 1, -3.9073112848927e-07
183, 2, 2, 9.2050485345244e-07
183, 3, 3, 5.2977372496317e-07
184, 1, 1, -3.9073112848927e-07
184, 2, 2, 9.2050485345244e-07
184, 3, 3, 9.2050485345244e-07
185, 1, 1, 0
185, 2, 2, 0
185, 3, 3, 0
186, 1, 1, 0
186, 2, 2, 0
186, 3, 3, -3.9073112848927e-07
187, 1, 1, 0
187, 2, 2, 0
187, 3, 3, 5.2977372496317e-07
188, 1, 1, 0
188, 2, 2, 0
188, 3, 3, 9.2050485345244e-07
189, 1, 1, -3.9073112848927e-07
189, 2, 2, 9.2050485345244e-07
189, 3, 3, 0
190, 1, 1, -3.9073112848927e-07
190, 2, 2, 9.2050485345244e-07
190, 3, 3, -3.9073112848927e-07
191, 1, 1, -3.9073112848927e-07
191, 2, 2, 9.2050485345244e-07
191, 3, 3, 5.2977372496317e-07
192, 1, 1, -3.9073112848927e-07
192, 2, 2, 9.2050485345244e-07
192, 3, 3, 9.2050485345244e-07
193, 1, 1, 0
193, 2, 2, 0
193, 3, 3, 0
194, 1, 1, 1.694658370459e-06
194, 2, 2, 7.1933980033865e-07
194, 3, 3, 0
195, 1, 1, 2.4139981707976e-06
195, 2, 2, 1.0246814298797e-06
195, 3, 3, 0
196, 1, 1, 7.1933980033865e-07
196, 2, 2, 3.05341629541e-07
196, 3, 3, 0
197, 1, 1, 0
197, 2, 2, 0
197, 3, 3, 0
198, 1, 1, 1.694658370459e-06
198, 2, 2, 7.1933980033865e-07
198, 3, 3, 0
199, 1, 1, 2.4139981707976e-06
199, 2, 2, 1.0246814298797e-06
199, 3, 3, 0
200, 1, 1, 7.1933980033865e-07
200, 2, 2, 3.05341629541e-07
200, 3, 3, 0
201, 1, 1, 0
201, 2, 2, 0
201, 3, 3, 0
202, 1, 1, 1.694658370459e-06
202, 2, 2, 7.1933980033865e-07
202, 3, 3, 0
203, 1, 1, 2.4139981707976e-06
203, 2, 2, 1.0246814298797e-06
203, 3, 3, 0
204, 1, 1, 7.1933980033865e-07
204, 2, 2, 3.05341629541e-07
204, 3, 3, 0
205, 1, 1, 0
205, 2, 2, 0
205, 3, 3, 0
206, 1, 1, 1.694658370459e-06
206, 2, 2, 7.1933980033865e-07
206, 3, 3, 0
207, 1, 1, 2.4139981707976e-06
207, 2, 2, 1.0246814298797e-06
207, 3, 3, 0
208, 1, 1, 7.1933980033865e-07
208, 2, 2, 3.05341629541e-07
208, 3, 3, 0
209, 1, 1, 0
209, 2, 2, 0
209, 3, 3, 0
210, 1, 1, 3.05341629541e-07
210, 2, 2, -7.1933980033865e-07
210, 3, 3, 0
211, 1, 1, -4.1399817079765e-07
211, 2, 2, 9.7531857012035e-07
211, 3, 3, 0
212, 1, 1, -7.1933980033865e-07
212, 2, 2, 1.694658370459e-06
212, 3, 3, 0
213, 1, 1, 0
213, 2, 2, 0
213, 3, 3, 0
214, 1, 1, 3.05341629541e-07
214, 2, 2, -7.1933980033865e-07
214, 3, 3, 0
215, 1, 1, -4.1399817079765e-07
215, 2, 2, 9.7531857012035e-07
215, 3, 3, 0
216, 1, 1, -7.1933980033865e-07
216, 2, 2, 1.694658370459e-06
216, 3, 3, 0
217, 1, 1, 0
217, 2, 2, 0
217, 3, 3, 0
218, 1, 1, 3.05341629541e-07
218, 2, 2, -7.1933980033865e-07
218, 3, 3, 0
219, 1, 1, -4.1399817079765e-07
219, 2, 2, 9.7531857012035e-07
219, 3, 3, 0
220, 1, 1, -7.1933980033865e-07
220, 2, 2, 1.694658370459e-06
220, 3, 3, 0
221, 1, 1, 0
221, 2, 2, 0
221, 3, 3, 0
222, 1, 1, 3.05341629541e-07
222, 2, 2, -7.1933980033865e-07
222, 3, 3, 0
223, 1, 1, -4.1399817079765e-07
223, 2, 2, 9.7531857012035e-07
223, 3, 3, 0
224, 1, 1, -7.1933980033865e-07
224, 2, 2, 1.694658370459e-06
224, 3, 3, 0
225, 1, 1, 0
225, 2, 2, 0
225, 3, 3, 0
226, 1, 1, 0
226, 2, 2, 0
226, 3, 3, 0
227, 1, 1, 0
227, 2, 2, 0
227, 3, 3, 0
228, 1, 1, 0
228, 2, 2, 0
228, 3, 3, 0
229, 1, 1, 0
229, 2, 2, 0
229, 3, 3, 2e-06
230, 1, 1, 0
230, 2, 2, 0
230, 3, 3, 2e-06
231, 1, 1, 0
231, 2, 2, 0
231, 3, 3, 2e-06
232, 1, 1, 0
232, 2, 2, 0
232, 3, 3, 2e-06
233, 1, 1, 0
233, 2, 2, 0
233, 3, 3, 0
234, 1, 1, 0
234, 2, 2, 0
234, 3, 3, 0
235, 1, 1, 0
235, 2, 2, 0
235, 3, 3, 0
236, 1, 1, 0
236, 2, 2, 0
236, 3, 3, 0
237, 1, 1, 0
237, 2, 2, 0
237, 3, 3, 2e-06
238, 1, 1, 0
238, 2, 2, 0
238, 3, 3, 2e-06
239, 1, 1, 0
239, 2, 2, 0
239, 3, 3, 2e-06
240, 1, 1, 0
240, 2, 2, 0
240, 3, 3, 2e-06
241, 1, 1, 0
241, 2, 2, 0
241, 3, 3, 0
242, 1, 1, -7.1933980033865e-07
242, 2, 2, 6.94658370459e-07
242, 3, 3, 0
243, 1, 1, -2.4681429879654e-08
243, 2, 2, 1.4139981707976e-06
243, 3, 3, 0
244, 1, 1, 6.94658370459e-07
244, 2, 2, 7.1933980033865e-07
244, 3, 3, 0
245, 1, 1, 0
245, 2, 2, 0
245, 3, 3, 0
246, 1, 1, -7.1933980033865e-07
246, 2, 2, 6.94658370459e-07
246, 3, 3, 0
247, 1, 1, -2.4681429879654e-08
247, 2, 2, 1.4139981707976e-06
247, 3, 3, 0
248, 1, 1, 6.94658370459e-07
248, 2, 2, 7.1933980033865e-07
248, 3, 3, 0
249, 1, 1, 0
249, 2, 2, 0
249, 3, 3, 0
250, 1, 1, -7.1933980033865e-07
250, 2, 2, 6.94658370459e-07
250, 3, 3, 0
251, 1, 1, -2.4681429879654e-08
251, 2, 2, 1.4139981707976e-06
251, 3, 3, 0
252, 1, 1, 6.94658370459e-07
252, 2, 2, 7.1933980033865e-07
252, 3, 3, 0
253, 1, 1, 0
253, 2, 2, 0
253, 3, 3, 0
254, 1, 1, -7.1933980033865e-07
254, 2, 2, 6.94658370459e-07
254, 3, 3, 0
255, 1, 1, -2.4681429879654e-08
255, 2, 2, 1.4139981707976e-06
255, 3, 3, 0
256, 1, 1, 6.94658370459e-07
256, 2, 2, 7.1933980033865e-07
256, 3, 3, 0
257, 1, 1, 0
257, 2, 2, 0
257, 3, 3, 0
258, 1, 1, 0
258, 2, 2, 0
258, 3, 3, 9.2050485345244e-07
259, 1, 1, 0
259, 2, 2, 0
259, 3, 3, 1.3112359819417e-06
260, 1, 1, 0
260, 2, 2, 0
260, 3, 3, 3.9073112848927e-07
261, 1, 1, 9.2050485345244e-07
261, 2, 2, 3.9073112848927e-07
261, 3, 3, 0
262, 1, 1, 9.2050485345244e-07
262, 2, 2, 3.9073112848927e-07
262, 3, 3, 9.2050485345244e-07
263, 1, 1, 9.2050485345244e-07
263, 2, 2, 3.9073112848927e-07
263, 3, 3, 1.3112359819417e-06
264, 1, 1, 9.2050485345244e-07
264, 2, 2, 3.9073112848927e-07
264, 3, 3, 3.9073112848927e-07
265, 1, 1, 0
265, 2, 2, 0
265, 3, 3, 0
266, 1, 1, 0
266, 2, 2, 0
266, 3, 3, 9.2050485345244e-07
267, 1, 1, 0
267, 2, 2, 0
267, 3, 3, 1.3112359819417e-06
268, 1, 1, 0
268, 2, 2, 0
268, 3, 3, 3.9073112848927e-07
269, 1, 1, 9.2050485345244e-07
269, 2, 2, 3.9073112848927e-07
269, 3, 3, 0
270, 1, 1, 9.2050485345244e-07
270, 2, 2, 3.9073112848927e-07
270, 3, 3, 9.2050485345244e-07
271, 1, 1, 9.2050485345244e-07
271, 2, 2, 3.9073112848927e-07
271, 3, 3, 1.3112359819417e-06
272, 1, 1, 9.2050485345244e-07
272, 2, 2, 3.9073112848927e-07
272, 3, 3, 3.9073112848927e-07
273, 1, 1, 0
273, 2, 2, 0
273, 3, 3, 0
274, 1, 1, 0
274, 2, 2, 0
274, 3, 3, -3.9073112848927e-07
275, 1, 1, 0
275, 2, 2, 0
275, 3, 3, 5.2977372496317e-07
276, 1, 1, 0
276, 2, 2, 0
276, 3, 3, 9.2050485345244e-07
277, 1, 1, -3.9073112848927e-07
277, 2, 2, 9.2050485345244e-07
277, 3, 3, 0
278, 1, 1, -3.9073112848927e-07
278, 2, 2, 9.2050485345244e-07
278, 3, 3, -3.9073112848927e-07
279, 1, 1, -3.9073112848927e-07
279, 2, 2, 9.2050485345244e-07
279, 3, 3, 5.2977372496317e-07
280, 1, 1, -3.9073112848927e-07
280, 2, 2, 9.2050485345244e-07
280, 3, 3, 9.2050485345244e-07
281, 1, 1, 0
281, 2, 2, 0
281, 3, 3, 0
282, 1, 1, 0
282, 2, 2, 0
282, 3, 3, -3.9073112848927e-07
283, 1, 1, 0
283, 2, 2, 0
283, 3, 3, 5.2977372496317e-07
284, 1, 1, 0
284, 2, 2, 0
284, 3, 3, 9.2050485345244e-07
285, 1, 1, -3.9073112848927e-07
285, 2, 2, 9.2050485345244e-07
285, 3, 3, 0
286, 1, 1, -3.9073112848927e-07
286, 2, 2, 9.2050485345244e-07
286, 3, 3, -3.9073112848927e-07
287, 1, 1, -3.9073112848927e-07
287, 2, 2, 9.2050485345244e-07
287, 3, 3, 5.2977372496317e-07
288, 1, 1, -3.9073112848927e-07
288, 2, 2, 9.2050485345244e-07
288, 3, 3, 9.2050485345244e-07
289, 1, 1, 0
289, 2, 2, 0
289, 3, 3, 0
290, 1, 1, 1.694658370459e-06
290, 2, 2, 7.1933980033865e-07
290, 3, 3, 0
291, 1, 1, 2.4139981707976e-06
291, 2, 2, 1.0246814298797e-06
291, 3, 3, 0
292, 1, 1, 7.1933980033865e-07
292, 2, 2, 3.05341629541e-07
292, 3, 3, 0
293, 1, 1, 0
293, 2, 2, 0
293, 3, 3, 0
294, 1, 1, 1.694658370459e-06
294, 2, 2, 7.1933980033865e-07
294, 3, 3, 0
295, 1, 1, 2.4139981707976e-06
295, 2, 2, 1.0246814298797e-06
295, 3, 3, 0
296, 1, 1, 7.1933980033865e-07
296, 2, 2, 3.05341629541e-07
296, 3, 3, 0
297, 1, 1, 0
297, 2, 2, 0
297, 3, 3, 0
298, 1, 1, 1.694658370459e-06
298, 2, 2, 7.1933980033865e-07
298, 3, 3, 0
299, 1, 1, 2.4139981707976e-06
299, 2, 2, 1.0246814298797e-06
299, 3, 3, 0
300, 1, 1, 7.1933980033865e-07
300, 2, 2, 3.05341629541e-07
300, 3, 3, 0
301, 1, 1, 0
301, 2, 2, 0
301, 3, 3, 0
302, 1, 1, 1.694658370459e-06
302, 2, 2, 7.1933980033865e-07
302, 3, 3, 0
303, 1, 1, 2.4139981707976e-06
303, 2, 2, 1.0246814298797e-06
303, 3, 3, 0
304, 1, 1, 7.1933980033865e-07
304, 2, 2, 3.05341629541e-07
304, 3, 3, 0
305, 1, 1, 0
305, 2, 2, 0
305, 3, 3, 0
306, 1, 1, 3.05341629541e-07
306, 2, 2, -7.1933980033865e-07
306, 3, 3, 0
307, 1, 1, -4.1399817079765e-07
307, 2, 2, 9.7531857012035e-07
307, 3, 3, 0
308, 1, 1, -7.1933980033865e-07
308, 2, 2, 1.694658370459e-06
308, 3, 3, 0
309, 1, 1, 0
309, 2, 2, 0
309, 3, 3, 0
310, 1, 1, 3.05341629541e-07
310, 2, 2, -7.1933980033865e-07
310, 3, 3, 0
311, 1, 1, -4.1399817079765e-07
311, 2, 2, 9.7531857012035e-07
311, 3, 3, 0
312, 1, 1, -7.1933980033865e-07
312, 2, 2, 1.694658370459e-06
312, 3, 3, 0
313, 1, 1, 0
313, 2, 2, 0
313, 3, 3, 0
314, 1, 1, 3.05341629541e-07
314, 2, 2, -7.1933980033865e-07
314, 3, 3, 0
315, 1, 1, -4.1399817079765e-07
315, 2, 2, 9.7531857012035e-07
315, 3, 3, 0
316, 1, 1, -7.1933980033865e-07
316, 2, 2, 1.694658370459e-06
316, 3, 3, 0
317, 1, 1, 0
317, 2, 2, 0
317, 3, 3, 0
318, 1, 1, 3.05341629541e-07
318, 2, 2, -7.1933980033865e-07
318, 3, 3, 0
319, 1, 1, -4.1399817079765e-07
319, 2, 2, 9.7531857012035e-07
319, 3, 3, 0
320, 1, 1, -7.1933980033865e-07
320, 2, 2, 1.694658370459e-06
320, 3, 3, 0
321, 1, 1, 0
321, 2, 2, 0
321, 3, 3, 0
322, 1, 1, 0
322, 2, 2, 0
322, 3, 3, 0
323, 1, 1, 0
323, 2, 2, 0
323, 3, 3, 0
324, 1, 1, 0
324, 2, 2, 0
324, 3, 3, 0
325, 1, 1, 0
325, 2, 2, 0
325, 3, 3, 2e-06
326, 1, 1, 0
326, 2, 2, 0
326, 3, 3, 2e-06
327, 1, 1, 0
327, 2, 2, 0
327, 3, 3, 2e-06
328, 1, 1, 0
328, 2, 2, 0
328, 3, 3, 2e-06
329, 1, 1, 0
329, 2, 2, 0
329, 3, 3, 0
330, 1, 1, 0
330, 2, 2, 0
330, 3, 3, 0
331, 1, 1, 0
331, 2, 2, 0
331, 3, 3, 0
332, 1, 1, 0
332, 2, 2, 0
332, 3, 3, 0
333, 1, 1, 0
333, 2, 2, 0
333, 3, 3, 2e-06
334, 1, 1, 0
334, 2, 2, 0
334, 3, 3, 2e-06
335, 1, 1, 0
335, 2, 2, 0
335, 3, 3, 2e-06
336, 1, 1, 0
336, 2, 2, 0
336, 3, 3, 2e-06
337, 1, 1, 0
337, 2, 2, 0
337, 3, 3, 0
338, 1, 1, -7.1933980033865e-07
338, 2, 2, 6.94658370459e-07
338, 3, 3, 0
339, 1, 1, -2.4681429879654e-08
339, 2, 2, 1.4139981707976e-06
339, 3, 3, 0
340, 1, 1, 6.94658370459e-07
340, 2, 2, 7.1933980033865e-07
340, 3, 3, 0
341, 1, 1, 0
341, 2, 2, 0
341, 3, 3, 0
342, 1, 1, -7.1933980033865e-07
342, 2, 2, 6.94658370459e-07
342, 3, 3, 0
343, 1, 1, -2.4681429879654e-08
343, 2, 2, 1.4139981707976e-06
343, 3, 3, 0
344, 1, 1, 6.94658370459e-07
344, 2, 2, 7.1933980033865e-07
344, 3, 3, 0
345, 1, 1, 0
345, 2, 2, 0
345, 3, 3, 0
346, 1, 1, -7.1933980033865e-07
346, 2, 2, 6.94658370459e-07
346, 3, 3, 0
347, 1, 1, -2.4681429879654e-08
347, 2, 2, 1.4139981707976e-06
347, 3, 3, 0
348, 1, 1, 6.94658370459e-07
348, 2, 2, 7.1933980033865e-07
348, 3, 3, 0
349, 1, 1, 0
349, 2, 2, 0
349, 3, 3, 0
350, 1, 1, -7.1933980033865e-07
350, 2, 2, 6.94658370459e-07
350, 3, 3, 0
351, 1, 1, -2.4681429879654e-08
351, 2, 2, 1.4139981707976e-06
351, 3, 3, 0
352, 1, 1, 6.94658370459e-07
352, 2, 2, 7.1933980033865e-07
352, 3, 3, 0
353, 1, 1, 0
353, 2, 2, 0
353, 3, 3, 0
354, 1, 1, 0
354, 2, 2, 0
354, 3, 3, 9.2050485345244e-07
355, 1, 1, 0
355, 2, 2, 0
355, 3, 3, 1.3112359819417e-06
356, 1, 1, 0
356, 2, 2, 0
356, 3, 3, 3.9073112848927e-07
357, 1, 1, 9.2050485345244e-07
357, 2, 2, 3.9073112848927e-07
357, 3, 3, 0
358, 1, 1, 9.2050485345244e-07
358, 2, 2, 3.9073112848927e-07
358, 3, 3, 9.2050485345244e-07
359, 1, 1, 9.2050485345244e-07
359, 2, 2, 3.9073112848927e-07
359, 3, 3, 1.3112359819417e-06
360, 1, 1, 9.2050485345244e-07
360, 2, 2, 3.9073112848927e-07
360, 3, 3, 3.9073112848927e-07
361, 1, 1, 0
361, 2, 2, 0
361, 3, 3, 0
362, 1, 1, 0
362, 2, 2, 0
362, 3, 3, 9.2050485345244e-07
363, 1, 1, 0
363, 2, 2, 0
363, 3, 3, 1.3112359819417e-06
364, 1, 1, 0
364, 2, 2, 0
364, 3, 3, 3.9073112848927e-07
365, 1, 1, 9.2050485345244e-07
365, 2, 2, 3.9073112848927e-07
365, 3, 3, 0
366, 1, 1, 9.2050485345244e-07
366, 2, 2, 3.9073112848927e-07
366, 3, 3, 9.2050485345244e-07
367, 1, 1, 9.2050485345244e-07
367, 2, 2, 3.9073112848927e-07
367, 3, 3, 1.3112359819417e-06
368, 1, 1, 9.2050485345244e-07
368, 2, 2, 3.9073112848927e-07
368, 3, 3, 3.9073112848927e-07
369, 1, 1, 0
369, 2, 2, 0
369, 3, 3, 0
370, 1, 1, 0
370, 2, 2, 0
370, 3, 3, -3.9073112848927e-07
371, 1, 1, 0
371, 2, 2, 0
371, 3, 3, 5.2977372496317e-07
372, 1, 1, 0
372, 2, 2, 0
372, 3, 3, 9.2050485345244e-07
373, 1, 1, -3.9073112848927e-07
373, 2, 2, 9.2050485345244e-07
373, 3, 3, 0
374, 1, 1, -3.9073112848927e-07
374, 2, 2, 9.2050485345244e-07
374, 3, 3, -3.9073112848927e-07
375, 1, 1, -3.9073112848927e-07
375, 2, 2, 9.2050485345244e-07
375, 3, 3, 5.2977372496317e-07
376, 1, 1, -3.9073112848927e-07
376, 2, 2, 9.2050485345244e-07
376, 3, 3, 9.2050485345244e-07
377, 1, 1, 0
377, 2, 2, 0
377, 3, 3, 0
378, 1, 1, 0
378, 2, 2, 0
378, 3, 3, -3.9073112848927e-07
379, 1, 1, 0
379, 2, 2, 0
379, 3, 3, 5.2977372496317e-07
380, 1, 1, 0
380, 2, 2, 0
380, 3, 3, 9.2050485345244e-07
381, 1, 1, -3.9073112848927e-07
381, 2, 2, 9.2050485345244e-07
381, 3, 3, 0
382, 1, 1, -3.9073112848927e-07
382, 2, 2, 9.2050485345244e-07
382, 3, 3, -3.9073112848927e-07
383, 1, 1, -3.9073112848927e-07
383, 2, 2, 9.2050485345244e-07
383, 3, 3, 5.2977372496317e-07
384, 1, 1, -3.9073112848927e-07
384, 2, 2, 9.2050485345244e-07
384, 3, 3, 9.2050485345244e-07
385, 1, 1, 0
385, 2, 2, 0
385, 3, 3, 0
386, 1, 1, 1.694658370459e-06
386, 2, 2, 7.1933980033865e-07
386, 3, 3, 0
387, 1, 1, 2.4139981707976e-06
387, 2, 2, 1.0246814298797e-06
387, 3, 3, 0
388, 1, 1, 7.1933980033865e-07
388, 2, 2, 3.05341629541e-07
388, 3, 3, 0
389, 1, 1, 0
389, 2, 2, 0
389, 3, 3, 0
390, 1, 1, 1.694658370459e-06
390, 2, 2, 7.1933980033865e-07
390, 3, 3, 0
391, 1, 1, 2.4139981707976e-06
391, 2, 2, 1.0246814298797e-06
391, 3, 3, 0
392, 1, 1, 7.1933980033865e-07
392, 2, 2, 3.05341629541e-07
392, 3, 3, 0
393, 1, 1, 0
393, 2, 2, 0
393, 3, 3, 0
394, 1, 1, 1.694658370459e-06
394, 2, 2, 7.1933980033865e-07
394, 3, 3, 0
395, 1, 1, 2.4139981707976e-06
395, 2, 2, 1.0246814298797e-06
395, 3, 3, 0
396, 1, 1, 7.1933980033865e-07
396, 2, 2, 3.05341629541e-07
396, 3, 3, 0
397, 1, 1, 0
397, 2, 2, 0
397, 3, 3, 0
398, 1, 1, 1.694658370459e-06
398, 2, 2, 7.1933980033865e-07
398, 3, 3, 0
399, 1, 1, 2.4139981707976e-06
399, 2, 2, 1.0246814298797e-06
399, 3, 3, 0
400, 1, 1, 7.1933980033865e-07
400, 2, 2, 3.05341629541e-07
400, 3, 3, 0
401, 1, 1, 0
401, 2, 2, 0
401, 3, 3, 0
402, 1, 1, 3.05341629541e-07
402, 2, 2, -7.1933980033865e-07
402, 3, 3, 0
403, 1, 1, -4.1399817079765e-07
403, 2, 2, 9.7531857012035e-07
403, 3, 3, 0
404, 1, 1, -7.1933980033865e-07
404, 2, 2, 1.694658370459e-06
404, 3, 3, 0
405, 1, 1, 0
405, 2, 2, 0
405, 3, 3, 0
406, 1, 1, 3.05341629541e-07
406, 2, 2, -7.1933980033865e-07
406, 3, 3, 0
407, 1, 1, -4.1399817079765e-07
407, 2, 2, 9.7531857012035e-07
407, 3, 3, 0
408, 1, 1, -7.1933980033865e-07
408, 2, 2, 1.694658370459e-06
408, 3, 3, 0
409, 1, 1, 0
409, 2, 2, 0
409, 3, 3, 0
410, 1, 1, 3.05341629541e-07
410, 2, 2, -7.1933980033865e-07
410, 3, 3, 0
411, 1, 1, -4.1399817079765e-07
411, 2, 2, 9.7531857012035e-07
411, 3, 3, 0
412, 1, 1, -7.1933980033865e-07
412, 2, 2, 1.694658370459e-06
412, 3, 3, 0
413, 1, 1, 0
413, 2, 2, 0
413, 3, 3, 0
414, 1, 1, 3.05341629541e-07
414, 2, 2, -7.1933980033865e-07
414, 3, 3, 0
415, 1, 1, -4.1399817079765e-07
415, 2, 2, 9.7531857012035e-07
415, 3, 3, 0
416, 1, 1, -7.1933980033865e-07
416, 2, 2, 1.694658370459e-06
416, 3, 3, 0
417, 1, 1, 0
417, 2, 2, 0
417, 3, 3, 0
418, 1, 1, 0
418, 2, 2, 0
418, 3, 3, 0
419, 1, 1, 0
419, 2, 2, 0
419, 3, 3, 0
420, 1, 1, 0
420, 2, 2, 0
420, 3, 3, 0
421, 1, 1, 0
421, 2, 2, 0
421, 3, 3, 2e-06
422, 1, 1, 0
422, 2, 2, 0
422, 3, 3, 2e-06
423, 1, 1, 0
423, 2, 2, 0
423, 3, 3, 2e-06
424, 1, 1, 0
424, 2, 2, 0
424, 3, 3, 2e-06
425, 1, 1, 0
425, 2, 2, 0
425, 3, 3, 0
426, 1, 1, 0
426, 2, 2, 0
426, 3, 3, 0
427, 1, 1, 0
427, 2, 2, 0
427, 3, 3, 0
428, 1, 1, 0
428, 2, 2, 0
428, 3, 3, 0
429, 1, 1, 0
429, 2, 2, 0
429, 3, 3, 2e-06
430, 1, 1, 0
430, 2, 2, 0
430, 3, 3, 2e-06
431, 1, 1, 0
431, 2, 2, 0
431, 3, 3, 2e-06
432, 1, 1, 0
432, 2, 2, 0
432, 3, 3, 2e-06
433, 1, 1, 0
433, 2, 2, 0
433, 3, 3, 0
434, 1, 1, -7.1933980033865e-07
434, 2, 2, 6.94658370459e-07
434, 3, 3, 0
435, 1, 1, -2.4681429879654e-08
435, 2, 2, 1.4139981707976e-06
435, 3, 3, 0
436, 1, 1, 6.94658370459e-07
436, 2, 2, 7.1933980033865e-07
436, 3, 3, 0
437, 1, 1, 0
437, 2, 2, 0
437, 3, 3, 0
438, 1, 1, -7.1933980033865e-07
438, 2, 2, 6.94658370459e-07
438, 3, 3, 0
439, 1, 1, -2.4681429879654e-08
439, 2, 2, 1.4139981707976e-06
439, 3, 3, 0
440, 1, 1, 6.94658370459e-07
440, 2, 2, 7.1933980033865e-07
440, 3, 3, 0
441, 1, 1, 0
441, 2, 2, 0
441, 3, 3, 0
442, 1, 1, -7.1933980033865e-07
442, 2, 2, 6.94658370459e-07
442, 3, 3, 0
443, 1, 1, -2.4681429879654e-08
443, 2, 2, 1.4139981707976e-06
443, 3, 3, 0
444, 1, 1, 6.94658370459e-07
444, 2, 2, 7.1933980033865e-07
444, 3, 3, 0
445, 1, 1, 0
445, 2, 2, 0
445, 3, 3, 0
446, 1, 1, -7.1933980033865e-07
446, 2, 2, 6.94658370459e-07
446, 3, 3, 0
447, 1, 1, -2.4681429879654e-08
447, 2, 2, 1.4139981707976e-06
447, 3, 3, 0
448, 1, 1, 6.94658370459e-07
448, 2, 2, 7.1933980033865e-07
448, 3, 3, 0
449, 1, 1, 0
449, 2, 2, 0
449, 3, 3, 0
450, 1, 1, 0
450, 2, 2, 0
450, 3, 3, 9.2050485345244e-07
451, 1, 1, 0
451, 2, 2, 0
451, 3, 3, 1.3112359819417e-06
452, 1, 1, 0
452, 2, 2, 0
452, 3, 3, 3.9073112848927e-07
453, 1, 1, 9.2050485345244e-07
453, 2, 2, 3.9073112848927e-07
453, 3, 3, 0
454, 1, 1, 9.2050485345244e-07
454, 2, 2, 3.9073112848927e-07
454, 3, 3, 9.2050485345244e-07
455, 1, 1, 9.2050485345244e-07
455, 2, 2, 3.9073112848927e-07
455, 3, 3, 1.3112359819417e-06
456, 1, 1, 9.2050485345244e-07
456, 2, 2, 3.9073112848927e-07
456, 3, 3, 3.9073112848927e-07
457, 1, 1, 0
457, 2, 2, 0
457, 3, 3, 0
458, 1, 1, 0
458, 2, 2, 0
458, 3, 3, 9.2050485345244e-07
459, 1, 1, 0
459, 2, 2, 0
459, 3, 3, 1.3112359819417e-06
460, 1, 1, 0
460, 2, 2, 0
460, 3, 3, 3.9073112848927e-07
461, 1, 1, 9.2050485345244e-07
461, 2, 2, 3.9073112848927e-07
461, 3, 3, 0
462, 1, 1, 9.2050485345244e-07
462, 2, 2, 3.9073112848927e-07
462, 3, 3, 9.2050485345244e-07
463, 1, 1, 9.2050485345244e-07
463, 2, 2, 3.9073112848927e-07
463, 3, 3, 1.3112359819417e-06
464, 1, 1, 9.2050485345244e-07
464, 2, 2, 3.9073112848927e-07
464, 3, 3, 3.9073112848927e-07
465, 1, 1, 0
465, 2, 2, 0
465, 3, 3, 0
466, 1, 1, 0
466, 2, 2, 0
466, 3, 3, -3.9073112848927e-07
467, 1, 1, 0
467, 2, 2, 0
467, 3, 3, 5.2977372496317e-07
468, 1, 1, 0
468, 2, 2, 0
468, 3, 3, 9.2050485345244e-07
469, 1, 1, -3.9073112848927e-07
469, 2, 2, 9.2050485345244e-07
469, 3, 3, 0
470, 1, 1, -3.9073112848927e-07
470, 2, 2, 9.2050485345244e-07
470, 3, 3, -3.9073112848927e-07
471, 1, 1, -3.9073112848927e-07
471, 2, 2, 9.2050485345244e-07
471, 3, 3, 5.2977372496317e-07
472, 1, 1, -3.9073112848927e-07
472, 2, 2, 9.2050485345244e-07
472, 3, 3, 9.2050485345244e-07
473, 1, 1, 0
473, 2, 2, 0
473, 3, 3, 0
474, 1, 1, 0
474, 2, 2, 0
474, 3, 3, -3.9073112848927e-07
475, 1, 1, 0
475, 2, 2, 0
475, 3, 3, 5.2977372496317e-07
476, 1, 1, 0
476, 2, 2, 0
476, 3, 3, 9.2050485345244e-07
477, 1, 1, -3.9073112848927e-07
477, 2, 2, 9.2050485345244e-07
477, 3, 3, 0
478, 1, 1, -3.9073112848927e-07
478, 2, 2, 9.2050485345244e-07
478, 3, 3, -3.9073112848927e-07
479, 1, 1, -3.9073112848927e-07
479, 2, 2, 9.2050485345244e-07
479, 3, 3, 5.2977372496317e-07
480, 1, 1, -3.9073112848927e-07
480, 2, 2, 9.2050485345244e-07
480, 3, 3, 9.2050485345244e-07
*Output, field, frequency=1
*Element Output
S, E, SDV
*Node Output
U, RF
*End Step
