*Heading
** 仅包含旧案例材料卡，不包含网格、截面指派或分析步。
*Material, name=al-6061
*Density
2.7e-09,
*Elastic
70000., 0.32
*Plastic
306.,0.
*Material, name=t-700
*Density
1.75e-09,
*Elastic, type=ENGINEERING CONSTANTS
141000.,11400.,11400.,  0.28,  0.28,  0.28, 7100., 7100.
7100.,
*Fail Strain
0.01475, 0.00887, 0.00526, 0.02544, 0.01549
*Fail Stress
2080.,  60.,1250., 290., 110.,   0.,   0.
*Material, name=Liner
*Elastic
1880., 0.4
*Plastic
47., 0.
51., 0.005
55., 0.01
60., 0.02
65., 0.03
71.5, 0.045
78., 0.06
85., 0.08
92., 0.10
98.5, 0.125
105., 0.15
