*Heading
** WCM B mesh block study; mm N MPa
*Node
1, 0, 0, 0
2, 1.2, 0, 0
3, 2.4, 0, 0
4, 3.6, 0, 0
5, 4.8, 0, 0
6, 6, 0, 0
7, 0, 1.2, 0
8, 1.2, 1.2, 0
9, 2.4, 1.2, 0
10, 3.6, 1.2, 0
11, 4.8, 1.2, 0
12, 6, 1.2, 0
13, 0, 2.4, 0
14, 1.2, 2.4, 0
15, 2.4, 2.4, 0
16, 3.6, 2.4, 0
17, 4.8, 2.4, 0
18, 6, 2.4, 0
19, 0, 3.6, 0
20, 1.2, 3.6, 0
21, 2.4, 3.6, 0
22, 3.6, 3.6, 0
23, 4.8, 3.6, 0
24, 6, 3.6, 0
25, 0, 4.8, 0
26, 1.2, 4.8, 0
27, 2.4, 4.8, 0
28, 3.6, 4.8, 0
29, 4.8, 4.8, 0
30, 6, 4.8, 0
31, 0, 6, 0
32, 1.2, 6, 0
33, 2.4, 6, 0
34, 3.6, 6, 0
35, 4.8, 6, 0
36, 6, 6, 0
37, 0, 0, 1.2
38, 1.2, 0, 1.2
39, 2.4, 0, 1.2
40, 3.6, 0, 1.2
41, 4.8, 0, 1.2
42, 6, 0, 1.2
43, 0, 1.2, 1.2
44, 1.2, 1.2, 1.2
45, 2.4, 1.2, 1.2
46, 3.6, 1.2, 1.2
47, 4.8, 1.2, 1.2
48, 6, 1.2, 1.2
49, 0, 2.4, 1.2
50, 1.2, 2.4, 1.2
51, 2.4, 2.4, 1.2
52, 3.6, 2.4, 1.2
53, 4.8, 2.4, 1.2
54, 6, 2.4, 1.2
55, 0, 3.6, 1.2
56, 1.2, 3.6, 1.2
57, 2.4, 3.6, 1.2
58, 3.6, 3.6, 1.2
59, 4.8, 3.6, 1.2
60, 6, 3.6, 1.2
61, 0, 4.8, 1.2
62, 1.2, 4.8, 1.2
63, 2.4, 4.8, 1.2
64, 3.6, 4.8, 1.2
65, 4.8, 4.8, 1.2
66, 6, 4.8, 1.2
67, 0, 6, 1.2
68, 1.2, 6, 1.2
69, 2.4, 6, 1.2
70, 3.6, 6, 1.2
71, 4.8, 6, 1.2
72, 6, 6, 1.2
73, 0, 0, 2.4
74, 1.2, 0, 2.4
75, 2.4, 0, 2.4
76, 3.6, 0, 2.4
77, 4.8, 0, 2.4
78, 6, 0, 2.4
79, 0, 1.2, 2.4
80, 1.2, 1.2, 2.4
81, 2.4, 1.2, 2.4
82, 3.6, 1.2, 2.4
83, 4.8, 1.2, 2.4
84, 6, 1.2, 2.4
85, 0, 2.4, 2.4
86, 1.2, 2.4, 2.4
87, 2.4, 2.4, 2.4
88, 3.6, 2.4, 2.4
89, 4.8, 2.4, 2.4
90, 6, 2.4, 2.4
91, 0, 3.6, 2.4
92, 1.2, 3.6, 2.4
93, 2.4, 3.6, 2.4
94, 3.6, 3.6, 2.4
95, 4.8, 3.6, 2.4
96, 6, 3.6, 2.4
97, 0, 4.8, 2.4
98, 1.2, 4.8, 2.4
99, 2.4, 4.8, 2.4
100, 3.6, 4.8, 2.4
101, 4.8, 4.8, 2.4
102, 6, 4.8, 2.4
103, 0, 6, 2.4
104, 1.2, 6, 2.4
105, 2.4, 6, 2.4
106, 3.6, 6, 2.4
107, 4.8, 6, 2.4
108, 6, 6, 2.4
109, 0, 0, 3.6
110, 1.2, 0, 3.6
111, 2.4, 0, 3.6
112, 3.6, 0, 3.6
113, 4.8, 0, 3.6
114, 6, 0, 3.6
115, 0, 1.2, 3.6
116, 1.2, 1.2, 3.6
117, 2.4, 1.2, 3.6
118, 3.6, 1.2, 3.6
119, 4.8, 1.2, 3.6
120, 6, 1.2, 3.6
121, 0, 2.4, 3.6
122, 1.2, 2.4, 3.6
123, 2.4, 2.4, 3.6
124, 3.6, 2.4, 3.6
125, 4.8, 2.4, 3.6
126, 6, 2.4, 3.6
127, 0, 3.6, 3.6
128, 1.2, 3.6, 3.6
129, 2.4, 3.6, 3.6
130, 3.6, 3.6, 3.6
131, 4.8, 3.6, 3.6
132, 6, 3.6, 3.6
133, 0, 4.8, 3.6
134, 1.2, 4.8, 3.6
135, 2.4, 4.8, 3.6
136, 3.6, 4.8, 3.6
137, 4.8, 4.8, 3.6
138, 6, 4.8, 3.6
139, 0, 6, 3.6
140, 1.2, 6, 3.6
141, 2.4, 6, 3.6
142, 3.6, 6, 3.6
143, 4.8, 6, 3.6
144, 6, 6, 3.6
145, 0, 0, 4.8
146, 1.2, 0, 4.8
147, 2.4, 0, 4.8
148, 3.6, 0, 4.8
149, 4.8, 0, 4.8
150, 6, 0, 4.8
151, 0, 1.2, 4.8
152, 1.2, 1.2, 4.8
153, 2.4, 1.2, 4.8
154, 3.6, 1.2, 4.8
155, 4.8, 1.2, 4.8
156, 6, 1.2, 4.8
157, 0, 2.4, 4.8
158, 1.2, 2.4, 4.8
159, 2.4, 2.4, 4.8
160, 3.6, 2.4, 4.8
161, 4.8, 2.4, 4.8
162, 6, 2.4, 4.8
163, 0, 3.6, 4.8
164, 1.2, 3.6, 4.8
165, 2.4, 3.6, 4.8
166, 3.6, 3.6, 4.8
167, 4.8, 3.6, 4.8
168, 6, 3.6, 4.8
169, 0, 4.8, 4.8
170, 1.2, 4.8, 4.8
171, 2.4, 4.8, 4.8
172, 3.6, 4.8, 4.8
173, 4.8, 4.8, 4.8
174, 6, 4.8, 4.8
175, 0, 6, 4.8
176, 1.2, 6, 4.8
177, 2.4, 6, 4.8
178, 3.6, 6, 4.8
179, 4.8, 6, 4.8
180, 6, 6, 4.8
181, 0, 0, 6
182, 1.2, 0, 6
183, 2.4, 0, 6
184, 3.6, 0, 6
185, 4.8, 0, 6
186, 6, 0, 6
187, 0, 1.2, 6
188, 1.2, 1.2, 6
189, 2.4, 1.2, 6
190, 3.6, 1.2, 6
191, 4.8, 1.2, 6
192, 6, 1.2, 6
193, 0, 2.4, 6
194, 1.2, 2.4, 6
195, 2.4, 2.4, 6
196, 3.6, 2.4, 6
197, 4.8, 2.4, 6
198, 6, 2.4, 6
199, 0, 3.6, 6
200, 1.2, 3.6, 6
201, 2.4, 3.6, 6
202, 3.6, 3.6, 6
203, 4.8, 3.6, 6
204, 6, 3.6, 6
205, 0, 4.8, 6
206, 1.2, 4.8, 6
207, 2.4, 4.8, 6
208, 3.6, 4.8, 6
209, 4.8, 4.8, 6
210, 6, 4.8, 6
211, 0, 6, 6
212, 1.2, 6, 6
213, 2.4, 6, 6
214, 3.6, 6, 6
215, 4.8, 6, 6
216, 6, 6, 6
*Element, type=C3D8R, elset=EALL
1, 1, 2, 8, 7, 37, 38, 44, 43
2, 2, 3, 9, 8, 38, 39, 45, 44
3, 3, 4, 10, 9, 39, 40, 46, 45
4, 4, 5, 11, 10, 40, 41, 47, 46
5, 5, 6, 12, 11, 41, 42, 48, 47
6, 7, 8, 14, 13, 43, 44, 50, 49
7, 8, 9, 15, 14, 44, 45, 51, 50
8, 9, 10, 16, 15, 45, 46, 52, 51
9, 10, 11, 17, 16, 46, 47, 53, 52
10, 11, 12, 18, 17, 47, 48, 54, 53
11, 13, 14, 20, 19, 49, 50, 56, 55
12, 14, 15, 21, 20, 50, 51, 57, 56
13, 15, 16, 22, 21, 51, 52, 58, 57
14, 16, 17, 23, 22, 52, 53, 59, 58
15, 17, 18, 24, 23, 53, 54, 60, 59
16, 19, 20, 26, 25, 55, 56, 62, 61
17, 20, 21, 27, 26, 56, 57, 63, 62
18, 21, 22, 28, 27, 57, 58, 64, 63
19, 22, 23, 29, 28, 58, 59, 65, 64
20, 23, 24, 30, 29, 59, 60, 66, 65
21, 25, 26, 32, 31, 61, 62, 68, 67
22, 26, 27, 33, 32, 62, 63, 69, 68
23, 27, 28, 34, 33, 63, 64, 70, 69
24, 28, 29, 35, 34, 64, 65, 71, 70
25, 29, 30, 36, 35, 65, 66, 72, 71
26, 37, 38, 44, 43, 73, 74, 80, 79
27, 38, 39, 45, 44, 74, 75, 81, 80
28, 39, 40, 46, 45, 75, 76, 82, 81
29, 40, 41, 47, 46, 76, 77, 83, 82
30, 41, 42, 48, 47, 77, 78, 84, 83
31, 43, 44, 50, 49, 79, 80, 86, 85
32, 44, 45, 51, 50, 80, 81, 87, 86
33, 45, 46, 52, 51, 81, 82, 88, 87
34, 46, 47, 53, 52, 82, 83, 89, 88
35, 47, 48, 54, 53, 83, 84, 90, 89
36, 49, 50, 56, 55, 85, 86, 92, 91
37, 50, 51, 57, 56, 86, 87, 93, 92
38, 51, 52, 58, 57, 87, 88, 94, 93
39, 52, 53, 59, 58, 88, 89, 95, 94
40, 53, 54, 60, 59, 89, 90, 96, 95
41, 55, 56, 62, 61, 91, 92, 98, 97
42, 56, 57, 63, 62, 92, 93, 99, 98
43, 57, 58, 64, 63, 93, 94, 100, 99
44, 58, 59, 65, 64, 94, 95, 101, 100
45, 59, 60, 66, 65, 95, 96, 102, 101
46, 61, 62, 68, 67, 97, 98, 104, 103
47, 62, 63, 69, 68, 98, 99, 105, 104
48, 63, 64, 70, 69, 99, 100, 106, 105
49, 64, 65, 71, 70, 100, 101, 107, 106
50, 65, 66, 72, 71, 101, 102, 108, 107
51, 73, 74, 80, 79, 109, 110, 116, 115
52, 74, 75, 81, 80, 110, 111, 117, 116
53, 75, 76, 82, 81, 111, 112, 118, 117
54, 76, 77, 83, 82, 112, 113, 119, 118
55, 77, 78, 84, 83, 113, 114, 120, 119
56, 79, 80, 86, 85, 115, 116, 122, 121
57, 80, 81, 87, 86, 116, 117, 123, 122
58, 81, 82, 88, 87, 117, 118, 124, 123
59, 82, 83, 89, 88, 118, 119, 125, 124
60, 83, 84, 90, 89, 119, 120, 126, 125
61, 85, 86, 92, 91, 121, 122, 128, 127
62, 86, 87, 93, 92, 122, 123, 129, 128
63, 87, 88, 94, 93, 123, 124, 130, 129
64, 88, 89, 95, 94, 124, 125, 131, 130
65, 89, 90, 96, 95, 125, 126, 132, 131
66, 91, 92, 98, 97, 127, 128, 134, 133
67, 92, 93, 99, 98, 128, 129, 135, 134
68, 93, 94, 100, 99, 129, 130, 136, 135
69, 94, 95, 101, 100, 130, 131, 137, 136
70, 95, 96, 102, 101, 131, 132, 138, 137
71, 97, 98, 104, 103, 133, 134, 140, 139
72, 98, 99, 105, 104, 134, 135, 141, 140
73, 99, 100, 106, 105, 135, 136, 142, 141
74, 100, 101, 107, 106, 136, 137, 143, 142
75, 101, 102, 108, 107, 137, 138, 144, 143
76, 109, 110, 116, 115, 145, 146, 152, 151
77, 110, 111, 117, 116, 146, 147, 153, 152
78, 111, 112, 118, 117, 147, 148, 154, 153
79, 112, 113, 119, 118, 148, 149, 155, 154
80, 113, 114, 120, 119, 149, 150, 156, 155
81, 115, 116, 122, 121, 151, 152, 158, 157
82, 116, 117, 123, 122, 152, 153, 159, 158
83, 117, 118, 124, 123, 153, 154, 160, 159
84, 118, 119, 125, 124, 154, 155, 161, 160
85, 119, 120, 126, 125, 155, 156, 162, 161
86, 121, 122, 128, 127, 157, 158, 164, 163
87, 122, 123, 129, 128, 158, 159, 165, 164
88, 123, 124, 130, 129, 159, 160, 166, 165
89, 124, 125, 131, 130, 160, 161, 167, 166
90, 125, 126, 132, 131, 161, 162, 168, 167
91, 127, 128, 134, 133, 163, 164, 170, 169
92, 128, 129, 135, 134, 164, 165, 171, 170
93, 129, 130, 136, 135, 165, 166, 172, 171
94, 130, 131, 137, 136, 166, 167, 173, 172
95, 131, 132, 138, 137, 167, 168, 174, 173
96, 133, 134, 140, 139, 169, 170, 176, 175
97, 134, 135, 141, 140, 170, 171, 177, 176
98, 135, 136, 142, 141, 171, 172, 178, 177
99, 136, 137, 143, 142, 172, 173, 179, 178
100, 137, 138, 144, 143, 173, 174, 180, 179
101, 145, 146, 152, 151, 181, 182, 188, 187
102, 146, 147, 153, 152, 182, 183, 189, 188
103, 147, 148, 154, 153, 183, 184, 190, 189
104, 148, 149, 155, 154, 184, 185, 191, 190
105, 149, 150, 156, 155, 185, 186, 192, 191
106, 151, 152, 158, 157, 187, 188, 194, 193
107, 152, 153, 159, 158, 188, 189, 195, 194
108, 153, 154, 160, 159, 189, 190, 196, 195
109, 154, 155, 161, 160, 190, 191, 197, 196
110, 155, 156, 162, 161, 191, 192, 198, 197
111, 157, 158, 164, 163, 193, 194, 200, 199
112, 158, 159, 165, 164, 194, 195, 201, 200
113, 159, 160, 166, 165, 195, 196, 202, 201
114, 160, 161, 167, 166, 196, 197, 203, 202
115, 161, 162, 168, 167, 197, 198, 204, 203
116, 163, 164, 170, 169, 199, 200, 206, 205
117, 164, 165, 171, 170, 200, 201, 207, 206
118, 165, 166, 172, 171, 201, 202, 208, 207
119, 166, 167, 173, 172, 202, 203, 209, 208
120, 167, 168, 174, 173, 203, 204, 210, 209
121, 169, 170, 176, 175, 205, 206, 212, 211
122, 170, 171, 177, 176, 206, 207, 213, 212
123, 171, 172, 178, 177, 207, 208, 214, 213
124, 172, 173, 179, 178, 208, 209, 215, 214
125, 173, 174, 180, 179, 209, 210, 216, 215
*Section Controls, name=HG_UMAT, hourglass=ENHANCED
*Solid Section, elset=EALL, material=PLY_B, controls=HG_UMAT
1.2,
*Material, name=PLY_B
*Depvar
62,
*User Material, constants=30, unsymm
141000 ,11400 ,11400 ,0.28 ,0.28 ,0.28 ,7100 ,7100
7100 ,2080 ,1250 ,60 ,290 ,110 ,110 ,110
133 ,10 ,0.5 ,1.6 ,1 ,0.9 ,0.5 ,0.0001
0.005 ,90 ,0.5 ,1 ,1 ,0
*Step, name=MESH, inc=10000, nlgeom=NO
*Static
0.005, 1., 1e-20, 0.1
*Amplitude, name=RAMP
0., 0.
1., 1.
*Boundary, amplitude=RAMP
1, 1, 1, 0
1, 2, 2, 0
1, 3, 3, -0
2, 1, 1, 0.029165697097778
2, 2, 2, -0.0006277326727286
2, 3, 3, -0.0073206709697843
3, 1, 1, 0.058331394195557
3, 2, 2, -0.0012554653454572
3, 3, 3, -0.014641341939569
4, 1, 1, 0.087497091293335
4, 2, 2, -0.0018831980181858
4, 3, 3, -0.021962012909353
5, 1, 1, 0.11666278839111
5, 2, 2, -0.0025109306909144
5, 3, 3, -0.029282683879137
6, 1, 1, 0.14582848548889
6, 2, 2, -0.003138663363643
6, 3, 3, -0.036603354848921
7, 1, 1, -0.0006277326727286
7, 2, 2, 0.010435111820698
7, 3, 3, -0.00061807741876692
8, 1, 1, 0.02853796442505
8, 2, 2, 0.0098073791479692
8, 3, 3, -0.0079387483885512
9, 1, 1, 0.057703661522828
9, 2, 2, 0.0091796464752406
9, 3, 3, -0.015259419358335
10, 1, 1, 0.086869358620606
10, 2, 2, 0.008551913802512
10, 3, 3, -0.02258009032812
11, 1, 1, 0.11603505571838
11, 2, 2, 0.0079241811297834
11, 3, 3, -0.029900761297904
12, 1, 1, 0.14520075281616
12, 2, 2, 0.0072964484570548
12, 3, 3, -0.037221432267688
13, 1, 1, -0.0012554653454572
13, 2, 2, 0.020870223641396
13, 3, 3, -0.0012361548375338
14, 1, 1, 0.027910231752321
14, 2, 2, 0.020242490968667
14, 3, 3, -0.0085568258073181
15, 1, 1, 0.057075928850099
15, 2, 2, 0.019614758295938
15, 3, 3, -0.015877496777102
16, 1, 1, 0.086241625947878
16, 2, 2, 0.01898702562321
16, 3, 3, -0.023198167746887
17, 1, 1, 0.11540732304566
17, 2, 2, 0.018359292950481
17, 3, 3, -0.030518838716671
18, 1, 1, 0.14457302014343
18, 2, 2, 0.017731560277753
18, 3, 3, -0.037839509686455
19, 1, 1, -0.0018831980181858
19, 2, 2, 0.031305335462093
19, 3, 3, -0.0018542322563007
20, 1, 1, 0.027282499079593
20, 2, 2, 0.030677602789365
20, 3, 3, -0.009174903226085
21, 1, 1, 0.056448196177371
21, 2, 2, 0.030049870116636
21, 3, 3, -0.016495574195869
22, 1, 1, 0.085613893275149
22, 2, 2, 0.029422137443908
22, 3, 3, -0.023816245165654
23, 1, 1, 0.11477959037293
23, 2, 2, 0.028794404771179
23, 3, 3, -0.031136916135438
24, 1, 1, 0.14394528747071
24, 2, 2, 0.02816667209845
24, 3, 3, -0.038457587105222
25, 1, 1, -0.0025109306909144
25, 2, 2, 0.041740447282791
25, 3, 3, -0.0024723096750677
26, 1, 1, 0.026654766406864
26, 2, 2, 0.041112714610063
26, 3, 3, -0.0097929806448519
27, 1, 1, 0.055820463504642
27, 2, 2, 0.040484981937334
27, 3, 3, -0.017113651614636
28, 1, 1, 0.084986160602421
28, 2, 2, 0.039857249264605
28, 3, 3, -0.02443432258442
29, 1, 1, 0.1141518577002
29, 2, 2, 0.039229516591877
29, 3, 3, -0.031754993554205
30, 1, 1, 0.14331755479798
30, 2, 2, 0.038601783919148
30, 3, 3, -0.039075664523989
31, 1, 1, -0.003138663363643
31, 2, 2, 0.052175559103489
31, 3, 3, -0.0030903870938346
32, 1, 1, 0.026027033734135
32, 2, 2, 0.05154782643076
32, 3, 3, -0.010411058063619
33, 1, 1, 0.055192730831914
33, 2, 2, 0.050920093758032
33, 3, 3, -0.017731729033403
34, 1, 1, 0.084358427929692
34, 2, 2, 0.050292361085303
34, 3, 3, -0.025052400003187
35, 1, 1, 0.11352412502747
35, 2, 2, 0.049664628412575
35, 3, 3, -0.032373070972972
36, 1, 1, 0.14268982212525
36, 2, 2, 0.049036895739846
36, 3, 3, -0.039693741942756
37, 1, 1, -0.0073206709697843
37, 2, 2, -0.00061807741876692
37, 3, 3, -0.0020604281220585
38, 1, 1, 0.021845026127994
38, 2, 2, -0.0012458100914955
38, 3, 3, -0.0093810990918428
39, 1, 1, 0.051010723225772
39, 2, 2, -0.0018735427642241
39, 3, 3, -0.016701770061627
40, 1, 1, 0.080176420323551
40, 2, 2, -0.0025012754369527
40, 3, 3, -0.024022441031411
41, 1, 1, 0.10934211742133
41, 2, 2, -0.0031290081096813
41, 3, 3, -0.031343112001196
42, 1, 1, 0.13850781451911
42, 2, 2, -0.0037567407824099
42, 3, 3, -0.03866378297098
43, 1, 1, -0.0079484036425129
43, 2, 2, 0.0098170344019309
43, 3, 3, -0.0026785055408254
44, 1, 1, 0.021217293455265
44, 2, 2, 0.0091893017292023
44, 3, 3, -0.0099991765106097
45, 1, 1, 0.050382990553044
45, 2, 2, 0.0085615690564737
45, 3, 3, -0.017319847480394
46, 1, 1, 0.079548687650822
46, 2, 2, 0.0079338363837451
46, 3, 3, -0.024640518450178
47, 1, 1, 0.1087143847486
47, 2, 2, 0.0073061037110165
47, 3, 3, -0.031961189419962
48, 1, 1, 0.13788008184638
48, 2, 2, 0.0066783710382879
48, 3, 3, -0.039281860389747
49, 1, 1, -0.0085761363152415
49, 2, 2, 0.020252146222629
49, 3, 3, -0.0032965829595923
50, 1, 1, 0.020589560782537
50, 2, 2, 0.0196244135499
50, 3, 3, -0.010617253929377
51, 1, 1, 0.049755257880315
51, 2, 2, 0.018996680877171
51, 3, 3, -0.017937924899161
52, 1, 1, 0.078920954978093
52, 2, 2, 0.018368948204443
52, 3, 3, -0.025258595868945
53, 1, 1, 0.10808665207587
53, 2, 2, 0.017741215531714
53, 3, 3, -0.032579266838729
54, 1, 1, 0.13725234917365
54, 2, 2, 0.017113482858986
54, 3, 3, -0.039899937808514
55, 1, 1, -0.0092038689879701
55, 2, 2, 0.030687258043326
55, 3, 3, -0.0039146603783593
56, 1, 1, 0.019961828109808
56, 2, 2, 0.030059525370598
56, 3, 3, -0.011235331348144
57, 1, 1, 0.049127525207587
57, 2, 2, 0.029431792697869
57, 3, 3, -0.018556002317928
58, 1, 1, 0.078293222305365
58, 2, 2, 0.028804060025141
58, 3, 3, -0.025876673287712
59, 1, 1, 0.10745891940314
59, 2, 2, 0.028176327352412
59, 3, 3, -0.033197344257496
60, 1, 1, 0.13662461650092
60, 2, 2, 0.027548594679683
60, 3, 3, -0.040518015227281
61, 1, 1, -0.0098316016606987
61, 2, 2, 0.041122369864024
61, 3, 3, -0.0045327377971262
62, 1, 1, 0.01933409543708
62, 2, 2, 0.040494637191296
62, 3, 3, -0.01185340876691
63, 1, 1, 0.048499792534858
63, 2, 2, 0.039866904518567
63, 3, 3, -0.019174079736695
64, 1, 1, 0.077665489632636
64, 2, 2, 0.039239171845838
64, 3, 3, -0.026494750706479
65, 1, 1, 0.10683118673041
65, 2, 2, 0.03861143917311
65, 3, 3, -0.033815421676263
66, 1, 1, 0.13599688382819
66, 2, 2, 0.037983706500381
66, 3, 3, -0.041136092646047
67, 1, 1, -0.010459334333427
67, 2, 2, 0.051557481684722
67, 3, 3, -0.0051508152158931
68, 1, 1, 0.018706362764351
68, 2, 2, 0.050929749011993
68, 3, 3, -0.012471486185677
69, 1, 1, 0.047872059862129
69, 2, 2, 0.050302016339265
69, 3, 3, -0.019792157155462
70, 1, 1, 0.077037756959908
70, 2, 2, 0.049674283666536
70, 3, 3, -0.027112828125246
71, 1, 1, 0.10620345405769
71, 2, 2, 0.049046550993808
71, 3, 3, -0.03443349909503
72, 1, 1, 0.13536915115546
72, 2, 2, 0.048418818321079
72, 3, 3, -0.041754170064814
73, 1, 1, -0.014641341939569
73, 2, 2, -0.0012361548375338
73, 3, 3, -0.004120856244117
74, 1, 1, 0.01452435515821
74, 2, 2, -0.0018638875102624
74, 3, 3, -0.011441527213901
75, 1, 1, 0.043690052255988
75, 2, 2, -0.002491620182991
75, 3, 3, -0.018762198183686
76, 1, 1, 0.072855749353766
76, 2, 2, -0.0031193528557196
76, 3, 3, -0.02608286915347
77, 1, 1, 0.10202144645154
77, 2, 2, -0.0037470855284482
77, 3, 3, -0.033403540123254
78, 1, 1, 0.13118714354932
78, 2, 2, -0.0043748182011768
78, 3, 3, -0.040724211093038
79, 1, 1, -0.015269074612297
79, 2, 2, 0.009198956983164
79, 3, 3, -0.0047389336628839
80, 1, 1, 0.013896622485481
80, 2, 2, 0.0085712243104354
80, 3, 3, -0.012059604632668
81, 1, 1, 0.04306231958326
81, 2, 2, 0.0079434916377068
81, 3, 3, -0.019380275602452
82, 1, 1, 0.072228016681038
82, 2, 2, 0.0073157589649782
82, 3, 3, -0.026700946572237
83, 1, 1, 0.10139371377882
83, 2, 2, 0.0066880262922496
83, 3, 3, -0.034021617542021
84, 1, 1, 0.13055941087659
84, 2, 2, 0.006060293619521
84, 3, 3, -0.041342288511805
85, 1, 1, -0.015896807285026
85, 2, 2, 0.019634068803862
85, 3, 3, -0.0053570110816509
86, 1, 1, 0.013268889812753
86, 2, 2, 0.019006336131133
86, 3, 3, -0.012677682051435
87, 1, 1, 0.042434586910531
87, 2, 2, 0.018378603458405
87, 3, 3, -0.019998353021219
88, 1, 1, 0.071600284008309
88, 2, 2, 0.017750870785676
88, 3, 3, -0.027319023991004
89, 1, 1, 0.10076598110609
89, 2, 2, 0.017123138112947
89, 3, 3, -0.034639694960788
90, 1, 1, 0.12993167820387
90, 2, 2, 0.016495405440219
90, 3, 3, -0.041960365930572
91, 1, 1, -0.016524539957754
91, 2, 2, 0.03006918062456
91, 3, 3, -0.0059750885004178
92, 1, 1, 0.012641157140024
92, 2, 2, 0.029441447951831
92, 3, 3, -0.013295759470202
93, 1, 1, 0.041806854237802
93, 2, 2, 0.028813715279102
93, 3, 3, -0.020616430439986
94, 1, 1, 0.070972551335581
94, 2, 2, 0.028185982606374
94, 3, 3, -0.027937101409771
95, 1, 1, 0.10013824843336
95, 2, 2, 0.027558249933645
95, 3, 3, -0.035257772379555
96, 1, 1, 0.12930394553114
96, 2, 2, 0.026930517260917
96, 3, 3, -0.042578443349339
97, 1, 1, -0.017152272630483
97, 2, 2, 0.040504292445257
97, 3, 3, -0.0065931659191847
98, 1, 1, 0.012013424467295
98, 2, 2, 0.039876559772529
98, 3, 3, -0.013913836888969
99, 1, 1, 0.041179121565074
99, 2, 2, 0.0392488270998
99, 3, 3, -0.021234507858753
100, 1, 1, 0.070344818662852
100, 2, 2, 0.038621094427072
100, 3, 3, -0.028555178828537
101, 1, 1, 0.09951051576063
101, 2, 2, 0.037993361754343
101, 3, 3, -0.035875849798322
102, 1, 1, 0.12867621285841
102, 2, 2, 0.037365629081614
102, 3, 3, -0.043196520768106
103, 1, 1, -0.017780005303212
103, 2, 2, 0.050939404265955
103, 3, 3, -0.0072112433379516
104, 1, 1, 0.011385691794567
104, 2, 2, 0.050311671593226
104, 3, 3, -0.014531914307736
105, 1, 1, 0.040551388892345
105, 2, 2, 0.049683938920498
105, 3, 3, -0.02185258527752
106, 1, 1, 0.069717085990123
106, 2, 2, 0.049056206247769
106, 3, 3, -0.029173256247304
107, 1, 1, 0.098882783087902
107, 2, 2, 0.048428473575041
107, 3, 3, -0.036493927217089
108, 1, 1, 0.12804848018568
108, 2, 2, 0.047800740902312
108, 3, 3, -0.043814598186873
109, 1, 1, -0.021962012909353
109, 2, 2, -0.0018542322563007
109, 3, 3, -0.0061812843661755
110, 1, 1, 0.0072036841884255
110, 2, 2, -0.0024819649290293
110, 3, 3, -0.01350195533596
111, 1, 1, 0.036369381286204
111, 2, 2, -0.0031096976017579
111, 3, 3, -0.020822626305744
112, 1, 1, 0.065535078383982
112, 2, 2, -0.0037374302744865
112, 3, 3, -0.028143297275528
113, 1, 1, 0.09470077548176
113, 2, 2, -0.0043651629472151
113, 3, 3, -0.035463968245313
114, 1, 1, 0.12386647257954
114, 2, 2, -0.0049928956199437
114, 3, 3, -0.042784639215097
115, 1, 1, -0.022589745582081
115, 2, 2, 0.008580879564397
115, 3, 3, -0.0067993617849424
116, 1, 1, 0.0065759515156969
116, 2, 2, 0.0079531468916684
116, 3, 3, -0.014120032754727
117, 1, 1, 0.035741648613475
117, 2, 2, 0.0073254142189398
117, 3, 3, -0.021440703724511
118, 1, 1, 0.064907345711254
118, 2, 2, 0.0066976815462112
118, 3, 3, -0.028761374694295
119, 1, 1, 0.094073042809032
119, 2, 2, 0.0060699488734826
119, 3, 3, -0.036082045664079
120, 1, 1, 0.12323873990681
120, 2, 2, 0.005442216200754
120, 3, 3, -0.043402716633864
121, 1, 1, -0.02321747825481
121, 2, 2, 0.019015991385095
121, 3, 3, -0.0074174392037094
122, 1, 1, 0.0059482188429683
122, 2, 2, 0.018388258712366
122, 3, 3, -0.014738110173494
123, 1, 1, 0.035113915940747
123, 2, 2, 0.017760526039638
123, 3, 3, -0.022058781143278
124, 1, 1, 0.064279613038525
124, 2, 2, 0.017132793366909
124, 3, 3, -0.029379452113062
125, 1, 1, 0.093445310136303
125, 2, 2, 0.01650506069418
125, 3, 3, -0.036700123082846
126, 1, 1, 0.12261100723408
126, 2, 2, 0.015877328021452
126, 3, 3, -0.044020794052631
127, 1, 1, -0.023845210927539
127, 2, 2, 0.029451103205793
127, 3, 3, -0.0080355166224763
128, 1, 1, 0.0053204861702397
128, 2, 2, 0.028823370533064
128, 3, 3, -0.015356187592261
129, 1, 1, 0.034486183268018
129, 2, 2, 0.028195637860335
129, 3, 3, -0.022676858562045
130, 1, 1, 0.063651880365796
130, 2, 2, 0.027567905187607
130, 3, 3, -0.029997529531829
131, 1, 1, 0.092817577463575
131, 2, 2, 0.026940172514878
131, 3, 3, -0.037318200501613
132, 1, 1, 0.12198327456135
132, 2, 2, 0.02631243984215
132, 3, 3, -0.044638871471398
133, 1, 1, -0.024472943600267
133, 2, 2, 0.03988621502649
133, 3, 3, -0.0086535940412432
134, 1, 1, 0.0046927534975111
134, 2, 2, 0.039258482353762
134, 3, 3, -0.015974265011027
135, 1, 1, 0.033858450595289
135, 2, 2, 0.038630749681033
135, 3, 3, -0.023294935980812
136, 1, 1, 0.063024147693068
136, 2, 2, 0.038003017008305
136, 3, 3, -0.030615606950596
137, 1, 1, 0.092189844790846
137, 2, 2, 0.037375284335576
137, 3, 3, -0.03793627792038
138, 1, 1, 0.12135554188862
138, 2, 2, 0.036747551662847
138, 3, 3, -0.045256948890164
139, 1, 1, -0.025100676272996
139, 2, 2, 0.050321326847188
139, 3, 3, -0.0092716714600101
140, 1, 1, 0.0040650208247826
140, 2, 2, 0.04969359417446
140, 3, 3, -0.016592342429794
141, 1, 1, 0.033230717922561
141, 2, 2, 0.049065861501731
141, 3, 3, -0.023913013399579
142, 1, 1, 0.062396415020339
142, 2, 2, 0.048438128829002
142, 3, 3, -0.031233684369363
143, 1, 1, 0.091562112118118
143, 2, 2, 0.047810396156274
143, 3, 3, -0.038554355339147
144, 1, 1, 0.1207278092159
144, 2, 2, 0.047182663483545
144, 3, 3, -0.045875026308931
145, 1, 1, -0.029282683879137
145, 2, 2, -0.0024723096750677
145, 3, 3, -0.008241712488234
146, 1, 1, -0.00011698678135872
146, 2, 2, -0.0031000423477963
146, 3, 3, -0.015562383458018
147, 1, 1, 0.02904871031642
147, 2, 2, -0.0037277750205249
147, 3, 3, -0.022883054427803
148, 1, 1, 0.058214407414198
148, 2, 2, -0.0043555076932535
148, 3, 3, -0.030203725397587
149, 1, 1, 0.087380104511976
149, 2, 2, -0.0049832403659821
149, 3, 3, -0.037524396367371
150, 1, 1, 0.11654580160975
150, 2, 2, -0.0056109730387107
150, 3, 3, -0.044845067337155
151, 1, 1, -0.029910416551866
151, 2, 2, 0.0079628021456301
151, 3, 3, -0.008859789907001
152, 1, 1, -0.00074471945408732
152, 2, 2, 0.0073350694729015
152, 3, 3, -0.016180460876785
153, 1, 1, 0.028420977643691
153, 2, 2, 0.0067073368001729
153, 3, 3, -0.023501131846569
154, 1, 1, 0.057586674741469
154, 2, 2, 0.0060796041274443
154, 3, 3, -0.030821802816354
155, 1, 1, 0.086752371839248
155, 2, 2, 0.0054518714547157
155, 3, 3, -0.038142473786138
156, 1, 1, 0.11591806893703
156, 2, 2, 0.0048241387819871
156, 3, 3, -0.045463144755922
157, 1, 1, -0.030538149224594
157, 2, 2, 0.018397913966328
157, 3, 3, -0.0094778673257679
158, 1, 1, -0.0013724521268159
158, 2, 2, 0.017770181293599
158, 3, 3, -0.016798538295552
159, 1, 1, 0.027793244970962
159, 2, 2, 0.017142448620871
159, 3, 3, -0.024119209265336
160, 1, 1, 0.056958942068741
160, 2, 2, 0.016514715948142
160, 3, 3, -0.031439880235121
161, 1, 1, 0.086124639166519
161, 2, 2, 0.015886983275414
161, 3, 3, -0.038760551204905
162, 1, 1, 0.1152903362643
162, 2, 2, 0.015259250602685
162, 3, 3, -0.046081222174689
163, 1, 1, -0.031165881897323
163, 2, 2, 0.028833025787026
163, 3, 3, -0.010095944744535
164, 1, 1, -0.0020001847995445
164, 2, 2, 0.028205293114297
164, 3, 3, -0.017416615714319
165, 1, 1, 0.027165512298234
165, 2, 2, 0.027577560441568
165, 3, 3, -0.024737286684103
166, 1, 1, 0.056331209396012
166, 2, 2, 0.02694982776884
166, 3, 3, -0.032057957653888
167, 1, 1, 0.08549690649379
167, 2, 2, 0.026322095096111
167, 3, 3, -0.039378628623672
168, 1, 1, 0.11466260359157
168, 2, 2, 0.025694362423383
168, 3, 3, -0.046699299593456
169, 1, 1, -0.031793614570051
169, 2, 2, 0.039268137607723
169, 3, 3, -0.010714022163302
170, 1, 1, -0.0026279174722731
170, 2, 2, 0.038640404934995
170, 3, 3, -0.018034693133086
171, 1, 1, 0.026537779625505
171, 2, 2, 0.038012672262266
171, 3, 3, -0.02535536410287
172, 1, 1, 0.055703476723284
172, 2, 2, 0.037384939589538
172, 3, 3, -0.032676035072654
173, 1, 1, 0.084869173821062
173, 2, 2, 0.036757206916809
173, 3, 3, -0.039996706042439
174, 1, 1, 0.11403487091884
174, 2, 2, 0.03612947424408
174, 3, 3, -0.047317377012223
175, 1, 1, -0.03242134724278
175, 2, 2, 0.049703249428421
175, 3, 3, -0.011332099582069
176, 1, 1, -0.0032556501450017
176, 2, 2, 0.049075516755693
176, 3, 3, -0.018652770551853
177, 1, 1, 0.025910046952777
177, 2, 2, 0.048447784082964
177, 3, 3, -0.025973441521637
178, 1, 1, 0.055075744050555
178, 2, 2, 0.047820051410235
178, 3, 3, -0.033294112491421
179, 1, 1, 0.084241441148333
179, 2, 2, 0.047192318737507
179, 3, 3, -0.040614783461206
180, 1, 1, 0.11340713824611
180, 2, 2, 0.046564586064778
180, 3, 3, -0.04793545443099
181, 1, 1, -0.036603354848921
181, 2, 2, -0.0030903870938346
181, 3, 3, -0.010302140610293
182, 1, 1, -0.007437657751143
182, 2, 2, -0.0037181197665632
182, 3, 3, -0.017622811580077
183, 1, 1, 0.021728039346635
183, 2, 2, -0.0043458524392918
183, 3, 3, -0.024943482549861
184, 1, 1, 0.050893736444414
184, 2, 2, -0.0049735851120204
184, 3, 3, -0.032264153519645
185, 1, 1, 0.080059433542192
185, 2, 2, -0.005601317784749
185, 3, 3, -0.03958482448943
186, 1, 1, 0.10922513063997
186, 2, 2, -0.0062290504574776
186, 3, 3, -0.046905495459214
187, 1, 1, -0.03723108752165
187, 2, 2, 0.0073447247268632
187, 3, 3, -0.010920218029059
188, 1, 1, -0.0080653904238716
188, 2, 2, 0.0067169920541346
188, 3, 3, -0.018240888998844
189, 1, 1, 0.021100306673907
189, 2, 2, 0.006089259381406
189, 3, 3, -0.025561559968628
190, 1, 1, 0.050266003771685
190, 2, 2, 0.0054615267086774
190, 3, 3, -0.032882230938412
191, 1, 1, 0.079431700869463
191, 2, 2, 0.0048337940359488
191, 3, 3, -0.040202901908197
192, 1, 1, 0.10859739796724
192, 2, 2, 0.0042060613632202
192, 3, 3, -0.047523572877981
193, 1, 1, -0.037858820194378
193, 2, 2, 0.017779836547561
193, 3, 3, -0.011538295447826
194, 1, 1, -0.0086931230966002
194, 2, 2, 0.017152103874832
194, 3, 3, -0.018858966417611
195, 1, 1, 0.020472574001178
195, 2, 2, 0.016524371202104
195, 3, 3, -0.026179637387395
196, 1, 1, 0.049638271098956
196, 2, 2, 0.015896638529375
196, 3, 3, -0.033500308357179
197, 1, 1, 0.078803968196735
197, 2, 2, 0.015268905856647
197, 3, 3, -0.040820979326963
198, 1, 1, 0.10796966529451
198, 2, 2, 0.014641173183918
198, 3, 3, -0.048141650296748
199, 1, 1, -0.038486552867107
199, 2, 2, 0.028214948368259
199, 3, 3, -0.012156372866593
200, 1, 1, -0.0093208557693288
200, 2, 2, 0.02758721569553
200, 3, 3, -0.019477043836378
201, 1, 1, 0.01984484132845
201, 2, 2, 0.026959483022802
201, 3, 3, -0.026797714806162
202, 1, 1, 0.049010538426228
202, 2, 2, 0.026331750350073
202, 3, 3, -0.034118385775946
203, 1, 1, 0.078176235524006
203, 2, 2, 0.025704017677344
203, 3, 3, -0.04143905674573
204, 1, 1, 0.10734193262178
204, 2, 2, 0.025076285004616
204, 3, 3, -0.048759727715515
205, 1, 1, -0.039114285539836
205, 2, 2, 0.038650060188957
205, 3, 3, -0.01277445028536
206, 1, 1, -0.0099485884420574
206, 2, 2, 0.038022327516228
206, 3, 3, -0.020095121255144
207, 1, 1, 0.019217108655721
207, 2, 2, 0.037394594843499
207, 3, 3, -0.027415792224929
208, 1, 1, 0.048382805753499
208, 2, 2, 0.036766862170771
208, 3, 3, -0.034736463194713
209, 1, 1, 0.077548502851278
209, 2, 2, 0.036139129498042
209, 3, 3, -0.042057134164497
210, 1, 1, 0.10671419994906
210, 2, 2, 0.035511396825314
210, 3, 3, -0.049377805134282
211, 1, 1, -0.039742018212564
211, 2, 2, 0.049085172009654
211, 3, 3, -0.013392527704127
212, 1, 1, -0.010576321114786
212, 2, 2, 0.048457439336926
212, 3, 3, -0.020713198673911
213, 1, 1, 0.018589375982992
213, 2, 2, 0.047829706664197
213, 3, 3, -0.028033869643696
214, 1, 1, 0.047755073080771
214, 2, 2, 0.047201973991469
214, 3, 3, -0.03535454061348
215, 1, 1, 0.076920770178549
215, 2, 2, 0.04657424131874
215, 3, 3, -0.042675211583264
216, 1, 1, 0.10608646727633
216, 2, 2, 0.045946508646011
216, 3, 3, -0.049995882553048
*Output, field, frequency=1
*Element Output
S, E, SDV
*Node Output
U
*Output, history, frequency=1
*Energy Output
ALLSE, ALLIE, ALLPD, ALLAE
*End Step
