*Heading
** WCM B mesh block study; mm N MPa
*Node
1, 0, 0, 0
2, 0.5, 0, 0
3, 1, 0, 0
4, 1.5, 0, 0
5, 2, 0, 0
6, 0, 0.5, 0
7, 0.5, 0.5, 0
8, 1, 0.5, 0
9, 1.5, 0.5, 0
10, 2, 0.5, 0
11, 0, 1, 0
12, 0.5, 1, 0
13, 1, 1, 0
14, 1.5, 1, 0
15, 2, 1, 0
16, 0, 1.5, 0
17, 0.5, 1.5, 0
18, 1, 1.5, 0
19, 1.5, 1.5, 0
20, 2, 1.5, 0
21, 0, 2, 0
22, 0.5, 2, 0
23, 1, 2, 0
24, 1.5, 2, 0
25, 2, 2, 0
26, 0, 0, 0.5
27, 0.5, 0, 0.5
28, 1, 0, 0.5
29, 1.5, 0, 0.5
30, 2, 0, 0.5
31, 0, 0.5, 0.5
32, 0.5, 0.5, 0.5
33, 1, 0.5, 0.5
34, 1.5, 0.5, 0.5
35, 2, 0.5, 0.5
36, 0, 1, 0.5
37, 0.5, 1, 0.5
38, 1, 1, 0.5
39, 1.5, 1, 0.5
40, 2, 1, 0.5
41, 0, 1.5, 0.5
42, 0.5, 1.5, 0.5
43, 1, 1.5, 0.5
44, 1.5, 1.5, 0.5
45, 2, 1.5, 0.5
46, 0, 2, 0.5
47, 0.5, 2, 0.5
48, 1, 2, 0.5
49, 1.5, 2, 0.5
50, 2, 2, 0.5
51, 0, 0, 1
52, 0.5, 0, 1
53, 1, 0, 1
54, 1.5, 0, 1
55, 2, 0, 1
56, 0, 0.5, 1
57, 0.5, 0.5, 1
58, 1, 0.5, 1
59, 1.5, 0.5, 1
60, 2, 0.5, 1
61, 0, 1, 1
62, 0.5, 1, 1
63, 1, 1, 1
64, 1.5, 1, 1
65, 2, 1, 1
66, 0, 1.5, 1
67, 0.5, 1.5, 1
68, 1, 1.5, 1
69, 1.5, 1.5, 1
70, 2, 1.5, 1
71, 0, 2, 1
72, 0.5, 2, 1
73, 1, 2, 1
74, 1.5, 2, 1
75, 2, 2, 1
76, 0, 0, 1.5
77, 0.5, 0, 1.5
78, 1, 0, 1.5
79, 1.5, 0, 1.5
80, 2, 0, 1.5
81, 0, 0.5, 1.5
82, 0.5, 0.5, 1.5
83, 1, 0.5, 1.5
84, 1.5, 0.5, 1.5
85, 2, 0.5, 1.5
86, 0, 1, 1.5
87, 0.5, 1, 1.5
88, 1, 1, 1.5
89, 1.5, 1, 1.5
90, 2, 1, 1.5
91, 0, 1.5, 1.5
92, 0.5, 1.5, 1.5
93, 1, 1.5, 1.5
94, 1.5, 1.5, 1.5
95, 2, 1.5, 1.5
96, 0, 2, 1.5
97, 0.5, 2, 1.5
98, 1, 2, 1.5
99, 1.5, 2, 1.5
100, 2, 2, 1.5
101, 0, 0, 2
102, 0.5, 0, 2
103, 1, 0, 2
104, 1.5, 0, 2
105, 2, 0, 2
106, 0, 0.5, 2
107, 0.5, 0.5, 2
108, 1, 0.5, 2
109, 1.5, 0.5, 2
110, 2, 0.5, 2
111, 0, 1, 2
112, 0.5, 1, 2
113, 1, 1, 2
114, 1.5, 1, 2
115, 2, 1, 2
116, 0, 1.5, 2
117, 0.5, 1.5, 2
118, 1, 1.5, 2
119, 1.5, 1.5, 2
120, 2, 1.5, 2
121, 0, 2, 2
122, 0.5, 2, 2
123, 1, 2, 2
124, 1.5, 2, 2
125, 2, 2, 2
*Element, type=C3D8R, elset=EALL
1, 1, 2, 7, 6, 26, 27, 32, 31
2, 2, 3, 8, 7, 27, 28, 33, 32
3, 3, 4, 9, 8, 28, 29, 34, 33
4, 4, 5, 10, 9, 29, 30, 35, 34
5, 6, 7, 12, 11, 31, 32, 37, 36
6, 7, 8, 13, 12, 32, 33, 38, 37
7, 8, 9, 14, 13, 33, 34, 39, 38
8, 9, 10, 15, 14, 34, 35, 40, 39
9, 11, 12, 17, 16, 36, 37, 42, 41
10, 12, 13, 18, 17, 37, 38, 43, 42
11, 13, 14, 19, 18, 38, 39, 44, 43
12, 14, 15, 20, 19, 39, 40, 45, 44
13, 16, 17, 22, 21, 41, 42, 47, 46
14, 17, 18, 23, 22, 42, 43, 48, 47
15, 18, 19, 24, 23, 43, 44, 49, 48
16, 19, 20, 25, 24, 44, 45, 50, 49
17, 26, 27, 32, 31, 51, 52, 57, 56
18, 27, 28, 33, 32, 52, 53, 58, 57
19, 28, 29, 34, 33, 53, 54, 59, 58
20, 29, 30, 35, 34, 54, 55, 60, 59
21, 31, 32, 37, 36, 56, 57, 62, 61
22, 32, 33, 38, 37, 57, 58, 63, 62
23, 33, 34, 39, 38, 58, 59, 64, 63
24, 34, 35, 40, 39, 59, 60, 65, 64
25, 36, 37, 42, 41, 61, 62, 67, 66
26, 37, 38, 43, 42, 62, 63, 68, 67
27, 38, 39, 44, 43, 63, 64, 69, 68
28, 39, 40, 45, 44, 64, 65, 70, 69
29, 41, 42, 47, 46, 66, 67, 72, 71
30, 42, 43, 48, 47, 67, 68, 73, 72
31, 43, 44, 49, 48, 68, 69, 74, 73
32, 44, 45, 50, 49, 69, 70, 75, 74
33, 51, 52, 57, 56, 76, 77, 82, 81
34, 52, 53, 58, 57, 77, 78, 83, 82
35, 53, 54, 59, 58, 78, 79, 84, 83
36, 54, 55, 60, 59, 79, 80, 85, 84
37, 56, 57, 62, 61, 81, 82, 87, 86
38, 57, 58, 63, 62, 82, 83, 88, 87
39, 58, 59, 64, 63, 83, 84, 89, 88
40, 59, 60, 65, 64, 84, 85, 90, 89
41, 61, 62, 67, 66, 86, 87, 92, 91
42, 62, 63, 68, 67, 87, 88, 93, 92
43, 63, 64, 69, 68, 88, 89, 94, 93
44, 64, 65, 70, 69, 89, 90, 95, 94
45, 66, 67, 72, 71, 91, 92, 97, 96
46, 67, 68, 73, 72, 92, 93, 98, 97
47, 68, 69, 74, 73, 93, 94, 99, 98
48, 69, 70, 75, 74, 94, 95, 100, 99
49, 76, 77, 82, 81, 101, 102, 107, 106
50, 77, 78, 83, 82, 102, 103, 108, 107
51, 78, 79, 84, 83, 103, 104, 109, 108
52, 79, 80, 85, 84, 104, 105, 110, 109
53, 81, 82, 87, 86, 106, 107, 112, 111
54, 82, 83, 88, 87, 107, 108, 113, 112
55, 83, 84, 89, 88, 108, 109, 114, 113
56, 84, 85, 90, 89, 109, 110, 115, 114
57, 86, 87, 92, 91, 111, 112, 117, 116
58, 87, 88, 93, 92, 112, 113, 118, 117
59, 88, 89, 94, 93, 113, 114, 119, 118
60, 89, 90, 95, 94, 114, 115, 120, 119
61, 91, 92, 97, 96, 116, 117, 122, 121
62, 92, 93, 98, 97, 117, 118, 123, 122
63, 93, 94, 99, 98, 118, 119, 124, 123
64, 94, 95, 100, 99, 119, 120, 125, 124
*Section Controls, name=HG_UMAT, hourglass=ENHANCED
*Solid Section, elset=EALL, material=PLY_B, controls=HG_UMAT
0.5,
*Material, name=PLY_B
*Depvar
62,
*User Material, constants=30, unsymm
141000 ,11400 ,11400 ,0.28 ,0.28 ,0.28 ,7100 ,7100
7100 ,2080 ,1250 ,60 ,290 ,110 ,110 ,110
133 ,10 ,0.5 ,1.6 ,1 ,0.9 ,0.5 ,0.0001
0.005 ,35 ,0.5 ,1 ,1 ,0
*Step, name=MESH, inc=10000, nlgeom=NO
*Static
0.005, 1., 1e-20, 0.1
*Amplitude, name=RAMP
0., 0.
1., 1.
*Boundary, amplitude=RAMP
1, 1, 1, 0
1, 2, 2, 0
1, 3, 3, 0
2, 1, 1, 0.0022143034730107
2, 2, 2, 2.3850617036913e-09
2, 3, 3, -1.1542253020025e-07
3, 1, 1, 0.0044286069460213
3, 2, 2, 4.7701234073827e-09
3, 3, 3, -2.308450604005e-07
4, 1, 1, 0.006642910419032
4, 2, 2, 7.155185111074e-09
4, 3, 3, -3.4626759060075e-07
5, 1, 1, 0.0088572138920426
5, 2, 2, 9.5402468147654e-09
5, 3, 3, -4.6169012080099e-07
6, 1, 1, 2.3850617036913e-09
6, 2, 2, 0.0040570292621851
6, 3, 3, 1.6297910798713e-09
7, 1, 1, 0.0022143058580724
7, 2, 2, 0.0040570316472468
7, 3, 3, -1.1379273912038e-07
8, 1, 1, 0.004428609331083
8, 2, 2, 0.0040570340323085
8, 3, 3, -2.2921526932063e-07
9, 1, 1, 0.0066429128040937
9, 2, 2, 0.0040570364173702
9, 3, 3, -3.4463779952087e-07
10, 1, 1, 0.0088572162771043
10, 2, 2, 0.0040570388024319
10, 3, 3, -4.6006032972112e-07
11, 1, 1, 4.7701234073827e-09
11, 2, 2, 0.0081140585243702
11, 3, 3, 3.2595821597425e-09
12, 1, 1, 0.0022143082431341
12, 2, 2, 0.0081140609094319
12, 3, 3, -1.1216294804051e-07
13, 1, 1, 0.0044286117161447
13, 2, 2, 0.0081140632944936
13, 3, 3, -2.2758547824075e-07
14, 1, 1, 0.0066429151891554
14, 2, 2, 0.0081140656795553
14, 3, 3, -3.43008008441e-07
15, 1, 1, 0.008857218662166
15, 2, 2, 0.008114068064617
15, 3, 3, -4.5843053864125e-07
16, 1, 1, 7.155185111074e-09
16, 2, 2, 0.012171087786555
16, 3, 3, 4.8893732396138e-09
17, 1, 1, 0.0022143106281958
17, 2, 2, 0.012171090171617
17, 3, 3, -1.1053315696063e-07
18, 1, 1, 0.0044286141012064
18, 2, 2, 0.012171092556679
18, 3, 3, -2.2595568716088e-07
19, 1, 1, 0.0066429175742171
19, 2, 2, 0.01217109494174
19, 3, 3, -3.4137821736113e-07
20, 1, 1, 0.0088572210472277
20, 2, 2, 0.012171097326802
20, 3, 3, -4.5680074756138e-07
21, 1, 1, 9.5402468147654e-09
21, 2, 2, 0.01622811704874
21, 3, 3, 6.5191643194851e-09
22, 1, 1, 0.0022143130132575
22, 2, 2, 0.016228119433802
22, 3, 3, -1.0890336588076e-07
23, 1, 1, 0.0044286164862681
23, 2, 2, 0.016228121818864
23, 3, 3, -2.2432589608101e-07
24, 1, 1, 0.0066429199592788
24, 2, 2, 0.016228124203925
24, 3, 3, -3.3974842628126e-07
25, 1, 1, 0.0088572234322895
25, 2, 2, 0.016228126588987
25, 3, 3, -4.5517095648151e-07
26, 1, 1, -1.1542253020025e-07
26, 2, 2, 1.6297910798713e-09
26, 3, 3, -0.01927949860692
27, 1, 1, 0.0022141880504805
27, 2, 2, 4.0148527835626e-09
27, 3, 3, -0.01927961402945
28, 1, 1, 0.0044284915234911
28, 2, 2, 6.399914487254e-09
28, 3, 3, -0.019279729451981
29, 1, 1, 0.0066427949965018
29, 2, 2, 8.7849761909453e-09
29, 3, 3, -0.019279844874511
30, 1, 1, 0.0088570984695124
30, 2, 2, 1.1170037894637e-08
30, 3, 3, -0.019279960297041
31, 1, 1, -1.1303746849656e-07
31, 2, 2, 0.0040570308919762
31, 3, 3, -0.019279496977129
32, 1, 1, 0.0022141904355422
32, 2, 2, 0.0040570332770379
32, 3, 3, -0.019279612399659
33, 1, 1, 0.0044284939085528
33, 2, 2, 0.0040570356620996
33, 3, 3, -0.01927972782219
34, 1, 1, 0.0066427973815635
34, 2, 2, 0.0040570380471613
34, 3, 3, -0.01927984324472
35, 1, 1, 0.0088571008545741
35, 2, 2, 0.004057040432223
35, 3, 3, -0.01927995866725
36, 1, 1, -1.1065240679287e-07
36, 2, 2, 0.0081140601541613
36, 3, 3, -0.019279495347338
37, 1, 1, 0.0022141928206039
37, 2, 2, 0.008114062539223
37, 3, 3, -0.019279610769868
38, 1, 1, 0.0044284962936145
38, 2, 2, 0.0081140649242847
38, 3, 3, -0.019279726192398
39, 1, 1, 0.0066427997666252
39, 2, 2, 0.0081140673093464
39, 3, 3, -0.019279841614929
40, 1, 1, 0.0088571032396358
40, 2, 2, 0.0081140696944081
40, 3, 3, -0.019279957037459
41, 1, 1, -1.0826734508917e-07
41, 2, 2, 0.012171089416346
41, 3, 3, -0.019279493717547
42, 1, 1, 0.0022141952056656
42, 2, 2, 0.012171091801408
42, 3, 3, -0.019279609140077
43, 1, 1, 0.0044284986786762
43, 2, 2, 0.01217109418647
43, 3, 3, -0.019279724562607
44, 1, 1, 0.0066428021516869
44, 2, 2, 0.012171096571531
44, 3, 3, -0.019279839985138
45, 1, 1, 0.0088571056246975
45, 2, 2, 0.012171098956593
45, 3, 3, -0.019279955407668
46, 1, 1, -1.0588228338548e-07
46, 2, 2, 0.016228118678531
46, 3, 3, -0.019279492087756
47, 1, 1, 0.0022141975907273
47, 2, 2, 0.016228121063593
47, 3, 3, -0.019279607510286
48, 1, 1, 0.0044285010637379
48, 2, 2, 0.016228123448655
48, 3, 3, -0.019279722932816
49, 1, 1, 0.0066428045367486
49, 2, 2, 0.016228125833717
49, 3, 3, -0.019279838355347
50, 1, 1, 0.0088571080097593
50, 2, 2, 0.016228128218778
50, 3, 3, -0.019279953777877
51, 1, 1, -2.308450604005e-07
51, 2, 2, 3.2595821597425e-09
51, 3, 3, -0.03855899721384
52, 1, 1, 0.0022140726279503
52, 2, 2, 5.6446438634339e-09
52, 3, 3, -0.038559112636371
53, 1, 1, 0.0044283761009609
53, 2, 2, 8.0297055671252e-09
53, 3, 3, -0.038559228058901
54, 1, 1, 0.0066426795739716
54, 2, 2, 1.0414767270817e-08
54, 3, 3, -0.038559343481431
55, 1, 1, 0.0088569830469822
55, 2, 2, 1.2799828974508e-08
55, 3, 3, -0.038559458903961
56, 1, 1, -2.2845999869681e-07
56, 2, 2, 0.0040570325217673
56, 3, 3, -0.038558995584049
57, 1, 1, 0.002214075013012
57, 2, 2, 0.004057034906829
57, 3, 3, -0.03855911100658
58, 1, 1, 0.0044283784860226
58, 2, 2, 0.0040570372918907
58, 3, 3, -0.03855922642911
59, 1, 1, 0.0066426819590333
59, 2, 2, 0.0040570396769524
59, 3, 3, -0.03855934185164
60, 1, 1, 0.0088569854320439
60, 2, 2, 0.0040570420620141
60, 3, 3, -0.03855945727417
61, 1, 1, -2.2607493699311e-07
61, 2, 2, 0.0081140617839524
61, 3, 3, -0.038558993954258
62, 1, 1, 0.0022140773980737
62, 2, 2, 0.0081140641690141
62, 3, 3, -0.038559109376789
63, 1, 1, 0.0044283808710843
63, 2, 2, 0.0081140665540758
63, 3, 3, -0.038559224799319
64, 1, 1, 0.006642684344095
64, 2, 2, 0.0081140689391375
64, 3, 3, -0.038559340221849
65, 1, 1, 0.0088569878171056
65, 2, 2, 0.0081140713241992
65, 3, 3, -0.038559455644379
66, 1, 1, -2.2368987528942e-07
66, 2, 2, 0.012171091046137
66, 3, 3, -0.038558992324467
67, 1, 1, 0.0022140797831354
67, 2, 2, 0.012171093431199
67, 3, 3, -0.038559107746997
68, 1, 1, 0.004428383256146
68, 2, 2, 0.012171095816261
68, 3, 3, -0.038559223169528
69, 1, 1, 0.0066426867291567
69, 2, 2, 0.012171098201323
69, 3, 3, -0.038559338592058
70, 1, 1, 0.0088569902021673
70, 2, 2, 0.012171100586384
70, 3, 3, -0.038559454014588
71, 1, 1, -2.2130481358573e-07
71, 2, 2, 0.016228120308323
71, 3, 3, -0.038558990694676
72, 1, 1, 0.0022140821681971
72, 2, 2, 0.016228122693384
72, 3, 3, -0.038559106117206
73, 1, 1, 0.0044283856412077
73, 2, 2, 0.016228125078446
73, 3, 3, -0.038559221539737
74, 1, 1, 0.0066426891142184
74, 2, 2, 0.016228127463508
74, 3, 3, -0.038559336962267
75, 1, 1, 0.0088569925872291
75, 2, 2, 0.016228129848569
75, 3, 3, -0.038559452384797
76, 1, 1, -3.4626759060075e-07
76, 2, 2, 4.8893732396138e-09
76, 3, 3, -0.057838495820761
77, 1, 1, 0.0022139572054201
77, 2, 2, 7.2744349433052e-09
77, 3, 3, -0.057838611243291
78, 1, 1, 0.0044282606784307
78, 2, 2, 9.6594966469965e-09
78, 3, 3, -0.057838726665821
79, 1, 1, 0.0066425641514414
79, 2, 2, 1.2044558350688e-08
79, 3, 3, -0.057838842088351
80, 1, 1, 0.008856867624452
80, 2, 2, 1.4429620054379e-08
80, 3, 3, -0.057838957510882
81, 1, 1, -3.4388252889705e-07
81, 2, 2, 0.0040570341515583
81, 3, 3, -0.05783849419097
82, 1, 1, 0.0022139595904818
82, 2, 2, 0.00405703653662
82, 3, 3, -0.0578386096135
83, 1, 1, 0.0044282630634924
83, 2, 2, 0.0040570389216817
83, 3, 3, -0.05783872503603
84, 1, 1, 0.0066425665365031
84, 2, 2, 0.0040570413067434
84, 3, 3, -0.05783884045856
85, 1, 1, 0.0088568700095137
85, 2, 2, 0.0040570436918052
85, 3, 3, -0.05783895588109
86, 1, 1, -3.4149746719336e-07
86, 2, 2, 0.0081140634137434
86, 3, 3, -0.057838492561179
87, 1, 1, 0.0022139619755435
87, 2, 2, 0.0081140657988051
87, 3, 3, -0.057838607983709
88, 1, 1, 0.0044282654485541
88, 2, 2, 0.0081140681838668
88, 3, 3, -0.057838723406239
89, 1, 1, 0.0066425689215648
89, 2, 2, 0.0081140705689285
89, 3, 3, -0.057838838828769
90, 1, 1, 0.0088568723945754
90, 2, 2, 0.0081140729539902
90, 3, 3, -0.057838954251299
91, 1, 1, -3.3911240548967e-07
91, 2, 2, 0.012171092675929
91, 3, 3, -0.057838490931387
92, 1, 1, 0.0022139643606052
92, 2, 2, 0.01217109506099
92, 3, 3, -0.057838606353918
93, 1, 1, 0.0044282678336158
93, 2, 2, 0.012171097446052
93, 3, 3, -0.057838721776448
94, 1, 1, 0.0066425713066265
94, 2, 2, 0.012171099831114
94, 3, 3, -0.057838837198978
95, 1, 1, 0.0088568747796371
95, 2, 2, 0.012171102216175
95, 3, 3, -0.057838952621508
96, 1, 1, -3.3672734378598e-07
96, 2, 2, 0.016228121938114
96, 3, 3, -0.057838489301596
97, 1, 1, 0.0022139667456669
97, 2, 2, 0.016228124323175
97, 3, 3, -0.057838604724127
98, 1, 1, 0.0044282702186775
98, 2, 2, 0.016228126708237
98, 3, 3, -0.057838720146657
99, 1, 1, 0.0066425736916882
99, 2, 2, 0.016228129093299
99, 3, 3, -0.057838835569187
100, 1, 1, 0.0088568771646989
100, 2, 2, 0.01622813147836
100, 3, 3, -0.057838950991717
101, 1, 1, -4.6169012080099e-07
101, 2, 2, 6.5191643194851e-09
101, 3, 3, -0.077117994427681
102, 1, 1, 0.0022138417828899
102, 2, 2, 8.9042260231764e-09
102, 3, 3, -0.077118109850211
103, 1, 1, 0.0044281452559005
103, 2, 2, 1.1289287726868e-08
103, 3, 3, -0.077118225272741
104, 1, 1, 0.0066424487289112
104, 2, 2, 1.3674349430559e-08
104, 3, 3, -0.077118340695272
105, 1, 1, 0.0088567522019218
105, 2, 2, 1.605941113425e-08
105, 3, 3, -0.077118456117802
106, 1, 1, -4.593050590973e-07
106, 2, 2, 0.0040570357813494
106, 3, 3, -0.07711799279789
107, 1, 1, 0.0022138441679516
107, 2, 2, 0.0040570381664111
107, 3, 3, -0.07711810822042
108, 1, 1, 0.0044281476409622
108, 2, 2, 0.0040570405514728
108, 3, 3, -0.07711822364295
109, 1, 1, 0.0066424511139729
109, 2, 2, 0.0040570429365345
109, 3, 3, -0.07711833906548
110, 1, 1, 0.0088567545869835
110, 2, 2, 0.0040570453215962
110, 3, 3, -0.077118454488011
111, 1, 1, -4.5691999739361e-07
111, 2, 2, 0.0081140650435345
111, 3, 3, -0.077117991168099
112, 1, 1, 0.0022138465530133
112, 2, 2, 0.0081140674285962
112, 3, 3, -0.077118106590629
113, 1, 1, 0.0044281500260239
113, 2, 2, 0.0081140698136579
113, 3, 3, -0.077118222013159
114, 1, 1, 0.0066424534990346
114, 2, 2, 0.0081140721987196
114, 3, 3, -0.077118337435689
115, 1, 1, 0.0088567569720452
115, 2, 2, 0.0081140745837813
115, 3, 3, -0.07711845285822
116, 1, 1, -4.5453493568992e-07
116, 2, 2, 0.01217109430572
116, 3, 3, -0.077117989538308
117, 1, 1, 0.002213848938075
117, 2, 2, 0.012171096690781
117, 3, 3, -0.077118104960838
118, 1, 1, 0.0044281524110856
118, 2, 2, 0.012171099075843
118, 3, 3, -0.077118220383368
119, 1, 1, 0.0066424558840963
119, 2, 2, 0.012171101460905
119, 3, 3, -0.077118335805898
120, 1, 1, 0.0088567593571069
120, 2, 2, 0.012171103845966
120, 3, 3, -0.077118451228429
121, 1, 1, -4.5214987398623e-07
121, 2, 2, 0.016228123567905
121, 3, 3, -0.077117987908517
122, 1, 1, 0.0022138513231367
122, 2, 2, 0.016228125952966
122, 3, 3, -0.077118103331047
123, 1, 1, 0.0044281547961473
123, 2, 2, 0.016228128338028
123, 3, 3, -0.077118218753577
124, 1, 1, 0.006642458269158
124, 2, 2, 0.01622813072309
124, 3, 3, -0.077118334176107
125, 1, 1, 0.0088567617421687
125, 2, 2, 0.016228133108152
125, 3, 3, -0.077118449598637
*Output, field, frequency=1
*Element Output
S, E, SDV
*Node Output
U
*Output, history, frequency=1
*Energy Output
ALLSE, ALLIE, ALLPD, ALLAE
*End Step
