*Heading
** WCM B mesh block study; mm N MPa
*Node
1, 0, 0, 0
2, 1.5, 0, 0
3, 3, 0, 0
4, 4.5, 0, 0
5, 6, 0, 0
6, 0, 1.5, 0
7, 1.5, 1.5, 0
8, 3, 1.5, 0
9, 4.5, 1.5, 0
10, 6, 1.5, 0
11, 0, 3, 0
12, 1.5, 3, 0
13, 3, 3, 0
14, 4.5, 3, 0
15, 6, 3, 0
16, 0, 4.5, 0
17, 1.5, 4.5, 0
18, 3, 4.5, 0
19, 4.5, 4.5, 0
20, 6, 4.5, 0
21, 0, 6, 0
22, 1.5, 6, 0
23, 3, 6, 0
24, 4.5, 6, 0
25, 6, 6, 0
26, 0, 0, 1.5
27, 1.5, 0, 1.5
28, 3, 0, 1.5
29, 4.5, 0, 1.5
30, 6, 0, 1.5
31, 0, 1.5, 1.5
32, 1.5, 1.5, 1.5
33, 3, 1.5, 1.5
34, 4.5, 1.5, 1.5
35, 6, 1.5, 1.5
36, 0, 3, 1.5
37, 1.5, 3, 1.5
38, 3, 3, 1.5
39, 4.5, 3, 1.5
40, 6, 3, 1.5
41, 0, 4.5, 1.5
42, 1.5, 4.5, 1.5
43, 3, 4.5, 1.5
44, 4.5, 4.5, 1.5
45, 6, 4.5, 1.5
46, 0, 6, 1.5
47, 1.5, 6, 1.5
48, 3, 6, 1.5
49, 4.5, 6, 1.5
50, 6, 6, 1.5
51, 0, 0, 3
52, 1.5, 0, 3
53, 3, 0, 3
54, 4.5, 0, 3
55, 6, 0, 3
56, 0, 1.5, 3
57, 1.5, 1.5, 3
58, 3, 1.5, 3
59, 4.5, 1.5, 3
60, 6, 1.5, 3
61, 0, 3, 3
62, 1.5, 3, 3
63, 3, 3, 3
64, 4.5, 3, 3
65, 6, 3, 3
66, 0, 4.5, 3
67, 1.5, 4.5, 3
68, 3, 4.5, 3
69, 4.5, 4.5, 3
70, 6, 4.5, 3
71, 0, 6, 3
72, 1.5, 6, 3
73, 3, 6, 3
74, 4.5, 6, 3
75, 6, 6, 3
76, 0, 0, 4.5
77, 1.5, 0, 4.5
78, 3, 0, 4.5
79, 4.5, 0, 4.5
80, 6, 0, 4.5
81, 0, 1.5, 4.5
82, 1.5, 1.5, 4.5
83, 3, 1.5, 4.5
84, 4.5, 1.5, 4.5
85, 6, 1.5, 4.5
86, 0, 3, 4.5
87, 1.5, 3, 4.5
88, 3, 3, 4.5
89, 4.5, 3, 4.5
90, 6, 3, 4.5
91, 0, 4.5, 4.5
92, 1.5, 4.5, 4.5
93, 3, 4.5, 4.5
94, 4.5, 4.5, 4.5
95, 6, 4.5, 4.5
96, 0, 6, 4.5
97, 1.5, 6, 4.5
98, 3, 6, 4.5
99, 4.5, 6, 4.5
100, 6, 6, 4.5
101, 0, 0, 6
102, 1.5, 0, 6
103, 3, 0, 6
104, 4.5, 0, 6
105, 6, 0, 6
106, 0, 1.5, 6
107, 1.5, 1.5, 6
108, 3, 1.5, 6
109, 4.5, 1.5, 6
110, 6, 1.5, 6
111, 0, 3, 6
112, 1.5, 3, 6
113, 3, 3, 6
114, 4.5, 3, 6
115, 6, 3, 6
116, 0, 4.5, 6
117, 1.5, 4.5, 6
118, 3, 4.5, 6
119, 4.5, 4.5, 6
120, 6, 4.5, 6
121, 0, 6, 6
122, 1.5, 6, 6
123, 3, 6, 6
124, 4.5, 6, 6
125, 6, 6, 6
*Element, type=C3D8R, elset=EALL
1, 1, 2, 7, 6, 26, 27, 32, 31
2, 2, 3, 8, 7, 27, 28, 33, 32
3, 3, 4, 9, 8, 28, 29, 34, 33
4, 4, 5, 10, 9, 29, 30, 35, 34
5, 6, 7, 12, 11, 31, 32, 37, 36
6, 7, 8, 13, 12, 32, 33, 38, 37
7, 8, 9, 14, 13, 33, 34, 39, 38
8, 9, 10, 15, 14, 34, 35, 40, 39
9, 11, 12, 17, 16, 36, 37, 42, 41
10, 12, 13, 18, 17, 37, 38, 43, 42
11, 13, 14, 19, 18, 38, 39, 44, 43
12, 14, 15, 20, 19, 39, 40, 45, 44
13, 16, 17, 22, 21, 41, 42, 47, 46
14, 17, 18, 23, 22, 42, 43, 48, 47
15, 18, 19, 24, 23, 43, 44, 49, 48
16, 19, 20, 25, 24, 44, 45, 50, 49
17, 26, 27, 32, 31, 51, 52, 57, 56
18, 27, 28, 33, 32, 52, 53, 58, 57
19, 28, 29, 34, 33, 53, 54, 59, 58
20, 29, 30, 35, 34, 54, 55, 60, 59
21, 31, 32, 37, 36, 56, 57, 62, 61
22, 32, 33, 38, 37, 57, 58, 63, 62
23, 33, 34, 39, 38, 58, 59, 64, 63
24, 34, 35, 40, 39, 59, 60, 65, 64
25, 36, 37, 42, 41, 61, 62, 67, 66
26, 37, 38, 43, 42, 62, 63, 68, 67
27, 38, 39, 44, 43, 63, 64, 69, 68
28, 39, 40, 45, 44, 64, 65, 70, 69
29, 41, 42, 47, 46, 66, 67, 72, 71
30, 42, 43, 48, 47, 67, 68, 73, 72
31, 43, 44, 49, 48, 68, 69, 74, 73
32, 44, 45, 50, 49, 69, 70, 75, 74
33, 51, 52, 57, 56, 76, 77, 82, 81
34, 52, 53, 58, 57, 77, 78, 83, 82
35, 53, 54, 59, 58, 78, 79, 84, 83
36, 54, 55, 60, 59, 79, 80, 85, 84
37, 56, 57, 62, 61, 81, 82, 87, 86
38, 57, 58, 63, 62, 82, 83, 88, 87
39, 58, 59, 64, 63, 83, 84, 89, 88
40, 59, 60, 65, 64, 84, 85, 90, 89
41, 61, 62, 67, 66, 86, 87, 92, 91
42, 62, 63, 68, 67, 87, 88, 93, 92
43, 63, 64, 69, 68, 88, 89, 94, 93
44, 64, 65, 70, 69, 89, 90, 95, 94
45, 66, 67, 72, 71, 91, 92, 97, 96
46, 67, 68, 73, 72, 92, 93, 98, 97
47, 68, 69, 74, 73, 93, 94, 99, 98
48, 69, 70, 75, 74, 94, 95, 100, 99
49, 76, 77, 82, 81, 101, 102, 107, 106
50, 77, 78, 83, 82, 102, 103, 108, 107
51, 78, 79, 84, 83, 103, 104, 109, 108
52, 79, 80, 85, 84, 104, 105, 110, 109
53, 81, 82, 87, 86, 106, 107, 112, 111
54, 82, 83, 88, 87, 107, 108, 113, 112
55, 83, 84, 89, 88, 108, 109, 114, 113
56, 84, 85, 90, 89, 109, 110, 115, 114
57, 86, 87, 92, 91, 111, 112, 117, 116
58, 87, 88, 93, 92, 112, 113, 118, 117
59, 88, 89, 94, 93, 113, 114, 119, 118
60, 89, 90, 95, 94, 114, 115, 120, 119
61, 91, 92, 97, 96, 116, 117, 122, 121
62, 92, 93, 98, 97, 117, 118, 123, 122
63, 93, 94, 99, 98, 118, 119, 124, 123
64, 94, 95, 100, 99, 119, 120, 125, 124
*Section Controls, name=HG_UMAT, hourglass=ENHANCED
*Solid Section, elset=EALL, material=PLY_B, controls=HG_UMAT
1.5,
*Material, name=PLY_B
*Depvar
62,
*User Material, constants=30, unsymm
141000 ,11400 ,11400 ,0.28 ,0.28 ,0.28 ,7100 ,7100
7100 ,2080 ,1250 ,60 ,290 ,110 ,110 ,110
133 ,10 ,0.5 ,1.6 ,1 ,0.9 ,0.5 ,0.0001
0.005 ,90 ,0.5 ,1 ,1 ,0
*Step, name=MESH, inc=10000, nlgeom=NO
*Static
0.005, 1., 1e-20, 0.1
*Amplitude, name=RAMP
0., 0.
1., 1.
*Boundary, amplitude=RAMP
1, 1, 1, 0
1, 2, 2, 0
1, 3, 3, -0
2, 1, 1, 0.036457121372223
2, 2, 2, -0.00078466584091075
2, 3, 3, -0.0091508387122303
3, 1, 1, 0.072914242744446
3, 2, 2, -0.0015693316818215
3, 3, 3, -0.018301677424461
4, 1, 1, 0.10937136411667
4, 2, 2, -0.0023539975227322
4, 3, 3, -0.027452516136691
5, 1, 1, 0.14582848548889
5, 2, 2, -0.003138663363643
5, 3, 3, -0.036603354848921
6, 1, 1, -0.00078466584091075
6, 2, 2, 0.013043889775872
6, 3, 3, -0.00077259677345864
7, 1, 1, 0.035672455531312
7, 2, 2, 0.012259223934961
7, 3, 3, -0.009923435485689
8, 1, 1, 0.072129576903535
8, 2, 2, 0.011474558094051
8, 3, 3, -0.019074274197919
9, 1, 1, 0.10858669827576
9, 2, 2, 0.01068989225314
9, 3, 3, -0.02822511291015
10, 1, 1, 0.14504381964798
10, 2, 2, 0.0099052264122292
10, 3, 3, -0.03737595162238
11, 1, 1, -0.0015693316818215
11, 2, 2, 0.026087779551744
11, 3, 3, -0.0015451935469173
12, 1, 1, 0.034887789690401
12, 2, 2, 0.025303113710834
12, 3, 3, -0.010696032259148
13, 1, 1, 0.071344911062624
13, 2, 2, 0.024518447869923
13, 3, 3, -0.019846870971378
14, 1, 1, 0.10780203243485
14, 2, 2, 0.023733782029012
14, 3, 3, -0.028997709683608
15, 1, 1, 0.14425915380707
15, 2, 2, 0.022949116188101
15, 3, 3, -0.038148548395839
16, 1, 1, -0.0023539975227322
16, 2, 2, 0.039131669327617
16, 3, 3, -0.0023177903203759
17, 1, 1, 0.034103123849491
17, 2, 2, 0.038347003486706
17, 3, 3, -0.011468629032606
18, 1, 1, 0.070560245221714
18, 2, 2, 0.037562337645795
18, 3, 3, -0.020619467744837
19, 1, 1, 0.10701736659394
19, 2, 2, 0.036777671804884
19, 3, 3, -0.029770306457067
20, 1, 1, 0.14347448796616
20, 2, 2, 0.035993005963974
20, 3, 3, -0.038921145169297
21, 1, 1, -0.003138663363643
21, 2, 2, 0.052175559103489
21, 3, 3, -0.0030903870938346
22, 1, 1, 0.03331845800858
22, 2, 2, 0.051390893262578
22, 3, 3, -0.012241225806065
23, 1, 1, 0.069775579380803
23, 2, 2, 0.050606227421667
23, 3, 3, -0.021392064518295
24, 1, 1, 0.10623270075303
24, 2, 2, 0.049821561580757
24, 3, 3, -0.030542903230526
25, 1, 1, 0.14268982212525
25, 2, 2, 0.049036895739846
25, 3, 3, -0.039693741942756
26, 1, 1, -0.0091508387122303
26, 2, 2, -0.00077259677345864
26, 3, 3, -0.0025755351525731
27, 1, 1, 0.027306282659993
27, 2, 2, -0.0015572626143694
27, 3, 3, -0.011726373864803
28, 1, 1, 0.063763404032215
28, 2, 2, -0.0023419284552801
28, 3, 3, -0.020877212577034
29, 1, 1, 0.10022052540444
29, 2, 2, -0.0031265942961909
29, 3, 3, -0.030028051289264
30, 1, 1, 0.13667764677666
30, 2, 2, -0.0039112601371016
30, 3, 3, -0.039178890001494
31, 1, 1, -0.0099355045531411
31, 2, 2, 0.012271293002414
31, 3, 3, -0.0033481319260318
32, 1, 1, 0.026521616819082
32, 2, 2, 0.011486627161503
32, 3, 3, -0.012498970638262
33, 1, 1, 0.062978738191305
33, 2, 2, 0.010701961320592
33, 3, 3, -0.021649809350492
34, 1, 1, 0.099435859563528
34, 2, 2, 0.0099172954796813
34, 3, 3, -0.030800648062723
35, 1, 1, 0.13589298093575
35, 2, 2, 0.0091326296387706
35, 3, 3, -0.039951486774953
36, 1, 1, -0.010720170394052
36, 2, 2, 0.025315182778286
36, 3, 3, -0.0041207286994904
37, 1, 1, 0.025736950978171
37, 2, 2, 0.024530516937375
37, 3, 3, -0.013271567411721
38, 1, 1, 0.062194072350394
38, 2, 2, 0.023745851096464
38, 3, 3, -0.022422406123951
39, 1, 1, 0.098651193722617
39, 2, 2, 0.022961185255554
39, 3, 3, -0.031573244836181
40, 1, 1, 0.13510831509484
40, 2, 2, 0.022176519414643
40, 3, 3, -0.040724083548412
41, 1, 1, -0.011504836234963
41, 2, 2, 0.038359072554158
41, 3, 3, -0.0048933254729491
42, 1, 1, 0.02495228513726
42, 2, 2, 0.037574406713247
42, 3, 3, -0.014044164185179
43, 1, 1, 0.061409406509483
43, 2, 2, 0.036789740872337
43, 3, 3, -0.02319500289741
44, 1, 1, 0.097866527881706
44, 2, 2, 0.036005075031426
44, 3, 3, -0.03234584160964
45, 1, 1, 0.13432364925393
45, 2, 2, 0.035220409190515
45, 3, 3, -0.04149668032187
46, 1, 1, -0.012289502075873
46, 2, 2, 0.05140296233003
46, 3, 3, -0.0056659222464077
47, 1, 1, 0.02416761929635
47, 2, 2, 0.05061829648912
47, 3, 3, -0.014816760958638
48, 1, 1, 0.060624740668572
48, 2, 2, 0.049833630648209
48, 3, 3, -0.023967599670868
49, 1, 1, 0.097081862040795
49, 2, 2, 0.049048964807298
49, 3, 3, -0.033118438383099
50, 1, 1, 0.13353898341302
50, 2, 2, 0.048264298966387
50, 3, 3, -0.042269277095329
51, 1, 1, -0.018301677424461
51, 2, 2, -0.0015451935469173
51, 3, 3, -0.0051510703051463
52, 1, 1, 0.018155443947762
52, 2, 2, -0.002329859387828
52, 3, 3, -0.014301909017377
53, 1, 1, 0.054612565319985
53, 2, 2, -0.0031145252287388
53, 3, 3, -0.023452747729607
54, 1, 1, 0.091069686692208
54, 2, 2, -0.0038991910696495
54, 3, 3, -0.032603586441837
55, 1, 1, 0.12752680806443
55, 2, 2, -0.0046838569105603
55, 3, 3, -0.041754425154068
56, 1, 1, -0.019086343265371
56, 2, 2, 0.011498696228955
56, 3, 3, -0.0059236670786049
57, 1, 1, 0.017370778106852
57, 2, 2, 0.010714030388044
57, 3, 3, -0.015074505790835
58, 1, 1, 0.053827899479074
58, 2, 2, 0.0099293645471334
58, 3, 3, -0.024225344503066
59, 1, 1, 0.090285020851297
59, 2, 2, 0.0091446987062227
59, 3, 3, -0.033376183215296
60, 1, 1, 0.12674214222352
60, 2, 2, 0.008360032865312
60, 3, 3, -0.042527021927526
61, 1, 1, -0.019871009106282
61, 2, 2, 0.024542586004827
61, 3, 3, -0.0066962638520636
62, 1, 1, 0.016586112265941
62, 2, 2, 0.023757920163916
62, 3, 3, -0.015847102564294
63, 1, 1, 0.053043233638164
63, 2, 2, 0.022973254323006
63, 3, 3, -0.024997941276524
64, 1, 1, 0.089500355010387
64, 2, 2, 0.022188588482095
64, 3, 3, -0.034148779988755
65, 1, 1, 0.12595747638261
65, 2, 2, 0.021403922641184
65, 3, 3, -0.043299618700985
66, 1, 1, -0.020655674947193
66, 2, 2, 0.037586475780699
66, 3, 3, -0.0074688606255222
67, 1, 1, 0.01580144642503
67, 2, 2, 0.036801809939789
67, 3, 3, -0.016619699337753
68, 1, 1, 0.052258567797253
68, 2, 2, 0.036017144098878
68, 3, 3, -0.025770538049983
69, 1, 1, 0.088715689169476
69, 2, 2, 0.035232478257967
69, 3, 3, -0.034921376762213
70, 1, 1, 0.1251728105417
70, 2, 2, 0.034447812417056
70, 3, 3, -0.044072215474444
71, 1, 1, -0.021440340788104
71, 2, 2, 0.050630365556572
71, 3, 3, -0.0082414573989809
72, 1, 1, 0.015016780584119
72, 2, 2, 0.049845699715661
72, 3, 3, -0.017392296111211
73, 1, 1, 0.051473901956342
73, 2, 2, 0.04906103387475
73, 3, 3, -0.026543134823442
74, 1, 1, 0.087931023328565
74, 2, 2, 0.048276368033839
74, 3, 3, -0.035693973535672
75, 1, 1, 0.12438814470079
75, 2, 2, 0.047491702192929
75, 3, 3, -0.044844812247902
76, 1, 1, -0.027452516136691
76, 2, 2, -0.0023177903203759
76, 3, 3, -0.0077266054577194
77, 1, 1, 0.0090046052355319
77, 2, 2, -0.0031024561612867
77, 3, 3, -0.01687744416995
78, 1, 1, 0.045461726607755
78, 2, 2, -0.0038871220021974
78, 3, 3, -0.02602828288218
79, 1, 1, 0.081918847979978
79, 2, 2, -0.0046717878431082
79, 3, 3, -0.03517912159441
80, 1, 1, 0.1183759693522
80, 2, 2, -0.0054564536840189
80, 3, 3, -0.044329960306641
81, 1, 1, -0.028237181977602
81, 2, 2, 0.010726099455496
81, 3, 3, -0.0084992022311781
82, 1, 1, 0.0082199393946212
82, 2, 2, 0.0099414336145855
82, 3, 3, -0.017650040943408
83, 1, 1, 0.044677060766844
83, 2, 2, 0.0091567677736748
83, 3, 3, -0.026800879655639
84, 1, 1, 0.081134182139067
84, 2, 2, 0.0083721019327641
84, 3, 3, -0.035951718367869
85, 1, 1, 0.11759130351129
85, 2, 2, 0.0075874360918533
85, 3, 3, -0.045102557080099
86, 1, 1, -0.029021847818512
86, 2, 2, 0.023769989231369
86, 3, 3, -0.0092717990046367
87, 1, 1, 0.0074352735537104
87, 2, 2, 0.022985323390458
87, 3, 3, -0.018422637716867
88, 1, 1, 0.043892394925933
88, 2, 2, 0.022200657549547
88, 3, 3, -0.027573476429097
89, 1, 1, 0.080349516298156
89, 2, 2, 0.021415991708636
89, 3, 3, -0.036724315141328
90, 1, 1, 0.11680663767038
90, 2, 2, 0.020631325867726
90, 3, 3, -0.045875153853558
91, 1, 1, -0.029806513659423
91, 2, 2, 0.036813879007241
91, 3, 3, -0.010044395778095
92, 1, 1, 0.0066506077127997
92, 2, 2, 0.03602921316633
92, 3, 3, -0.019195234490326
93, 1, 1, 0.043107729085023
93, 2, 2, 0.035244547325419
93, 3, 3, -0.028346073202556
94, 1, 1, 0.079564850457245
94, 2, 2, 0.034459881484509
94, 3, 3, -0.037496911914786
95, 1, 1, 0.11602197182947
95, 2, 2, 0.033675215643598
95, 3, 3, -0.046647750627017
96, 1, 1, -0.030591179500334
96, 2, 2, 0.049857768783113
96, 3, 3, -0.010816992551554
97, 1, 1, 0.0058659418718889
97, 2, 2, 0.049073102942202
97, 3, 3, -0.019967831263784
98, 1, 1, 0.042323063244112
98, 2, 2, 0.048288437101291
98, 3, 3, -0.029118669976015
99, 1, 1, 0.078780184616335
99, 2, 2, 0.047503771260381
99, 3, 3, -0.038269508688245
100, 1, 1, 0.11523730598856
100, 2, 2, 0.04671910541947
100, 3, 3, -0.047420347400475
101, 1, 1, -0.036603354848921
101, 2, 2, -0.0030903870938346
101, 3, 3, -0.010302140610293
102, 1, 1, -0.0001462334766984
102, 2, 2, -0.0038750529347453
102, 3, 3, -0.019452979322523
103, 1, 1, 0.036310887895525
103, 2, 2, -0.0046597187756561
103, 3, 3, -0.028603818034753
104, 1, 1, 0.072768009267747
104, 2, 2, -0.0054443846165668
104, 3, 3, -0.037754656746984
105, 1, 1, 0.10922513063997
105, 2, 2, -0.0062290504574776
105, 3, 3, -0.046905495459214
106, 1, 1, -0.037388020689832
106, 2, 2, 0.0099535026820377
106, 3, 3, -0.011074737383751
107, 1, 1, -0.00093089931760915
107, 2, 2, 0.0091688368411269
107, 3, 3, -0.020225576095982
108, 1, 1, 0.035526222054614
108, 2, 2, 0.0083841710002162
108, 3, 3, -0.029376414808212
109, 1, 1, 0.071983343426837
109, 2, 2, 0.0075995051593054
109, 3, 3, -0.038527253520442
110, 1, 1, 0.10844046479906
110, 2, 2, 0.0068148393183947
110, 3, 3, -0.047678092232672
111, 1, 1, -0.038172686530743
111, 2, 2, 0.02299739245791
111, 3, 3, -0.01184733415721
112, 1, 1, -0.0017155651585199
112, 2, 2, 0.022212726616999
112, 3, 3, -0.02099817286944
113, 1, 1, 0.034741556213703
113, 2, 2, 0.021428060776088
113, 3, 3, -0.03014901158167
114, 1, 1, 0.071198677585926
114, 2, 2, 0.020643394935178
114, 3, 3, -0.039299850293901
115, 1, 1, 0.10765579895815
115, 2, 2, 0.019858729094267
115, 3, 3, -0.048450689006131
116, 1, 1, -0.038957352371654
116, 2, 2, 0.036041282233782
116, 3, 3, -0.012619930930668
117, 1, 1, -0.0025002309994306
117, 2, 2, 0.035256616392871
117, 3, 3, -0.021770769642899
118, 1, 1, 0.033956890372792
118, 2, 2, 0.034471950551961
118, 3, 3, -0.030921608355129
119, 1, 1, 0.070414011745015
119, 2, 2, 0.03368728471105
119, 3, 3, -0.040072447067359
120, 1, 1, 0.10687113311724
120, 2, 2, 0.032902618870139
120, 3, 3, -0.04922328577959
121, 1, 1, -0.039742018212564
121, 2, 2, 0.049085172009654
121, 3, 3, -0.013392527704127
122, 1, 1, -0.0032848968403414
122, 2, 2, 0.048300506168744
122, 3, 3, -0.022543366416357
123, 1, 1, 0.033172224531882
123, 2, 2, 0.047515840327833
123, 3, 3, -0.031694205128588
124, 1, 1, 0.069629345904104
124, 2, 2, 0.046731174486922
124, 3, 3, -0.040845043840818
125, 1, 1, 0.10608646727633
125, 2, 2, 0.045946508646011
125, 3, 3, -0.049995882553048
*Output, field, frequency=1
*Element Output
S, E, SDV
*Node Output
U
*Output, history, frequency=1
*Energy Output
ALLSE, ALLIE, ALLPD, ALLAE
*End Step
