*Heading
** Small strain followed by rigid rotation
*Node
1, 2.0, 0.0, 0.0
2, 2.2, 0.0, 0.0
3, 2.2, 0.2, 0.0
4, 2.0, 0.2, 0.0
5, 2.0, 0.0, 0.2
6, 2.2, 0.0, 0.2
7, 2.2, 0.2, 0.2
8, 2.0, 0.2, 0.2
9, 4.0, 0.0, 0.0
10, 4.2, 0.0, 0.0
11, 4.2, 0.2, 0.0
12, 4.0, 0.2, 0.0
13, 4.0, 0.0, 0.2
14, 4.2, 0.0, 0.2
15, 4.2, 0.2, 0.2
16, 4.0, 0.2, 0.2
*Element, type=C3D8, elset=E1
1, 1, 2, 3, 4, 5, 6, 7, 8
*Element, type=C3D8, elset=E2
2, 9, 10, 11, 12, 13, 14, 15, 16
*Orientation, name=BASE
0.9205048534524404, 0.39073112848927377, 0.0, -0.39073112848927377, 0.9205048534524404, 0.0
3, 0.
*Solid Section, elset=E1, material=M1, orientation=BASE
1.,
*Solid Section, elset=E2, material=M2, orientation=BASE
1.,
*Material, name=M1
*Depvar
84,
*User Material, constants=28, unsymm
141000 ,11400 ,11400 ,0.28 ,0.28 ,0.28 ,7100 ,7100
7100 ,2080 ,1250 ,60 ,290 ,110 ,110 ,110
0.07 ,0.14 ,0.2 ,0.4 ,0.9 ,0.5 ,15 ,0.5
0 ,0 ,202609 ,1
*Material, name=M2
*Depvar
84,
*User Material, constants=28, unsymm
141000 ,11400 ,11400 ,0.28 ,0.28 ,0.28 ,7100 ,7100
7100 ,2080 ,1250 ,60 ,290 ,110 ,110 ,110
0.07 ,0.14 ,0.2 ,0.4 ,0.9 ,0.5 ,45 ,0.5
0 ,0 ,202609 ,1
*Amplitude, name=A1_0
0, 0
0.01, 0
0.02, 0
0.03, 0
0.04, 0
0.05, 0
0.06, 0
0.07, 0
0.08, 0
0.09, 0
0.1, 0
0.11, 0
0.12, 0
0.13, 0
0.14, 0
0.15, 0
0.16, 0
0.17, 0
0.18, 0
0.19, 0
0.2, 0
0.21, 0
0.22, 0
0.23, 0
0.24, 0
0.25, 0
0.26, 0
0.27, 0
0.28, 0
0.29, 0
0.3, 0
0.31, 0
0.32, 0
0.33, 0
0.34, 0
0.35, 0
0.36, 0
0.37, 0
0.38, 0
0.39, 0
0.4, 0
0.41, 0
0.42, 0
0.43, 0
0.44, 0
0.45, 0
0.46, 0
0.47, 0
0.48, 0
0.49, 0
0.5, 0
0.51, 0
0.52, 0
0.53, 0
0.54, 0
0.55, 0
0.56, 0
0.57, 0
0.58, 0
0.59, 0
0.6, 0
0.61, 0
0.62, 0
0.63, 0
0.64, 0
0.65, 0
0.66, 0
0.67, 0
0.68, 0
0.69, 0
0.7, 0
0.71, 0
0.72, 0
0.73, 0
0.74, 0
0.75, 0
0.76, 0
0.77, 0
0.78, 0
0.79, 0
0.8, 0
0.81, 0
0.82, 0
0.83, 0
0.84, 0
0.85, 0
0.86, 0
0.87, 0
0.88, 0
0.89, 0
0.9, 0
0.91, 0
0.92, 0
0.93, 0
0.94, 0
0.95, 0
0.96, 0
0.97, 0
0.98, 0
0.99, 0
1, 0
*Amplitude, name=A1_1
0, 0
0.01, 0
0.02, 0
0.03, 0
0.04, 0
0.05, 0
0.06, 0
0.07, 0
0.08, 0
0.09, 0
0.1, 0
0.11, 0
0.12, 0
0.13, 0
0.14, 0
0.15, 0
0.16, 0
0.17, 0
0.18, 0
0.19, 0
0.2, 0
0.21, 0
0.22, 0
0.23, 0
0.24, 0
0.25, 0
0.26, 0
0.27, 0
0.28, 0
0.29, 0
0.3, 0
0.31, 0
0.32, 0
0.33, 0
0.34, 0
0.35, 0
0.36, 0
0.37, 0
0.38, 0
0.39, 0
0.4, 0
0.41, 0
0.42, 0
0.43, 0
0.44, 0
0.45, 0
0.46, 0
0.47, 0
0.48, 0
0.49, 0
0.5, 0
0.51, 0
0.52, 0
0.53, 0
0.54, 0
0.55, 0
0.56, 0
0.57, 0
0.58, 0
0.59, 0
0.6, 0
0.61, 0
0.62, 0
0.63, 0
0.64, 0
0.65, 0
0.66, 0
0.67, 0
0.68, 0
0.69, 0
0.7, 0
0.71, 0
0.72, 0
0.73, 0
0.74, 0
0.75, 0
0.76, 0
0.77, 0
0.78, 0
0.79, 0
0.8, 0
0.81, 0
0.82, 0
0.83, 0
0.84, 0
0.85, 0
0.86, 0
0.87, 0
0.88, 0
0.89, 0
0.9, 0
0.91, 0
0.92, 0
0.93, 0
0.94, 0
0.95, 0
0.96, 0
0.97, 0
0.98, 0
0.99, 0
1, 0
*Amplitude, name=A1_2
0, 0
0.01, 0
0.02, 0
0.03, 0
0.04, 0
0.05, 0
0.06, 0
0.07, 0
0.08, 0
0.09, 0
0.1, 0
0.11, 0
0.12, 0
0.13, 0
0.14, 0
0.15, 0
0.16, 0
0.17, 0
0.18, 0
0.19, 0
0.2, 0
0.21, 0
0.22, 0
0.23, 0
0.24, 0
0.25, 0
0.26, 0
0.27, 0
0.28, 0
0.29, 0
0.3, 0
0.31, 0
0.32, 0
0.33, 0
0.34, 0
0.35, 0
0.36, 0
0.37, 0
0.38, 0
0.39, 0
0.4, 0
0.41, 0
0.42, 0
0.43, 0
0.44, 0
0.45, 0
0.46, 0
0.47, 0
0.48, 0
0.49, 0
0.5, 0
0.51, 0
0.52, 0
0.53, 0
0.54, 0
0.55, 0
0.56, 0
0.57, 0
0.58, 0
0.59, 0
0.6, 0
0.61, 0
0.62, 0
0.63, 0
0.64, 0
0.65, 0
0.66, 0
0.67, 0
0.68, 0
0.69, 0
0.7, 0
0.71, 0
0.72, 0
0.73, 0
0.74, 0
0.75, 0
0.76, 0
0.77, 0
0.78, 0
0.79, 0
0.8, 0
0.81, 0
0.82, 0
0.83, 0
0.84, 0
0.85, 0
0.86, 0
0.87, 0
0.88, 0
0.89, 0
0.9, 0
0.91, 0
0.92, 0
0.93, 0
0.94, 0
0.95, 0
0.96, 0
0.97, 0
0.98, 0
0.99, 0
1, 0
*Amplitude, name=A2_0
0, 0.00018167950222754
0.01, 0.00017649990200184
0.02, 0.00016156398157787
0.03, 0.00013687246891125
0.04, 0.00010242656743151
0.05, 5.8227955983359e-05
0.06, 4.2787887446494e-06
0.07, -5.9418304878256e-05
0.08, -0.00013286022037891
0.09, -0.00021604337830194
0.1, -0.0003089637244176
0.11, -0.00041161672991927
0.12, -0.0005239973916443
0.13, -0.00064610023231781
0.14, -0.00077791930081961
0.15, -0.00091944817247425
0.16, -0.0010706799493642
0.17, -0.0012316072606659
0.18, -0.0014022222630095
0.19, -0.0015825166408602
0.2, -0.0017724816069246
0.21, -0.0019721079025781
0.22, -0.0021813857983167
0.23, -0.0024003050942311
0.24, -0.0026288551205036
0.25, -0.0028670247379284
0.26, -0.0031148023384543
0.27, -0.0033721758457507
0.28, -0.0036391327157958
0.29, -0.0039156599374885
0.3, -0.0042017440332821
0.31, -0.0044973710598414
0.32, -0.0048025266087222
0.33, -0.0051171958070735
0.34, -0.0054413633183625
0.35, -0.0057750133431221
0.36, -0.0061181296197207
0.37, -0.0064706954251552
0.38, -0.0068326935758655
0.39, -0.0072041064285725
0.4, -0.0075849158811377
0.41, -0.0079751033734457
0.42, -0.0083746498883085
0.43, -0.0087835359523928
0.44, -0.0092017416371685
0.45, -0.0096292465598806
0.46, -0.010066029884542
0.47, -0.010512070322951
0.48, -0.010967346135724
0.49, -0.011431835133361
0.5, -0.011905514677324
0.51, -0.012388361681139
0.52, -0.012880352611526
0.53, -0.01338146348954
0.54, -0.013891669891744
0.55, -0.014410946951398
0.56, -0.014939269359671
0.57, -0.015476611366873
0.58, -0.016022946783713
0.59, -0.016578248982574
0.6, -0.01714249089881
0.61, -0.017715645032067
0.62, -0.018297683447619
0.63, -0.018888577777737
0.64, -0.019488299223064
0.65, -0.020096818554022
0.66, -0.020714106112239
0.67, -0.021340131811989
0.68, -0.021974865141663
0.69, -0.022618275165254
0.7, -0.023270330523865
0.71, -0.023930999437238
0.72, -0.024600249705303
0.73, -0.025278048709744
0.74, -0.025964363415596
0.75, -0.026659160372846
0.76, -0.027362405718073
0.77, -0.02807406517609
0.78, -0.028794104061619
0.79, -0.02952248728098
0.8, -0.030259179333804
0.81, -0.031004144314758
0.82, -0.031757345915301
0.83, -0.032518747425448
0.84, -0.033288311735566
0.85, -0.034066001338174
0.86, -0.034851778329779
0.87, -0.035645604412719
0.88, -0.03644744089703
0.89, -0.037257248702334
0.9, -0.03807498835974
0.91, -0.038900620013772
0.92, -0.039734103424307
0.93, -0.040575397968539
0.94, -0.04142446264296
0.95, -0.042281256065355
0.96, -0.043145736476821
0.97, -0.044017861743803
0.98, -0.044897589360146
0.99, -0.045784876449166
1, -0.046679679765743
*Amplitude, name=A2_1
0, 4.3160388020319e-05
0.01, 0.0014406797477203
0.02, 0.0028381288907218
0.03, 0.0042354397073252
0.04, 0.0056325440945726
0.05, 0.0070293739595672
0.06, 0.0084258612227919
0.07, 0.0098219378214278
0.08, 0.011217535712671
0.09, 0.012612586877049
0.1, 0.014007023321736
0.11, 0.015400777083868
0.12, 0.016793780233852
0.13, 0.01818596487868
0.14, 0.019577263165236
0.15, 0.020967607283605
0.16, 0.022356929470375
0.17, 0.023745162011945
0.18, 0.025132237247817
0.19, 0.026518087573902
0.2, 0.02790264544581
0.21, 0.029285843382144
0.22, 0.030667613967787
0.23, 0.032047889857192
0.24, 0.033426603777657
0.25, 0.034803688532613
0.26, 0.03617907700489
0.27, 0.037552702159994
0.28, 0.038924497049375
0.29, 0.040294394813683
0.3, 0.041662328686036
0.31, 0.043028231995265
0.32, 0.04439203816917
0.33, 0.045753680737762
0.34, 0.047113093336505
0.35, 0.048470209709545
0.36, 0.049824963712944
0.37, 0.051177289317905
0.38, 0.052527120613985
0.39, 0.053874391812311
0.4, 0.055219037248786
0.41, 0.056560991387287
0.42, 0.057900188822864
0.43, 0.059236564284923
0.44, 0.060570052640408
0.45, 0.06190058889698
0.46, 0.063228108206177
0.47, 0.064552545866582
0.48, 0.065873837326972
0.49, 0.067191918189464
0.5, 0.068506724212658
0.51, 0.069818191314762
0.52, 0.07112625557672
0.53, 0.072430853245325
0.54, 0.073731920736328
0.55, 0.075029394637535
0.56, 0.076323211711897
0.57, 0.077613308900597
0.58, 0.078899623326117
0.59, 0.080182092295306
0.6, 0.081460653302438
0.61, 0.082735244032251
0.62, 0.084005802362992
0.63, 0.085272266369441
0.64, 0.086534574325927
0.65, 0.087792664709344
0.66, 0.089046476202139
0.67, 0.09029594769531
0.68, 0.091541018291379
0.69, 0.092781627307362
0.7, 0.094017714277724
0.71, 0.095249218957333
0.72, 0.096476081324386
0.73, 0.097698241583342
0.74, 0.098915640167836
0.75, 0.10012821774358
0.76, 0.10133591521124
0.77, 0.10253867370937
0.78, 0.1037364346172
0.79, 0.10492913955755
0.8, 0.10611673039968
0.81, 0.10729914926207
0.82, 0.10847633851531
0.83, 0.10964824078484
0.84, 0.11081479895381
0.85, 0.11197595616582
0.86, 0.11313165582769
0.87, 0.11428184161227
0.88, 0.11542645746111
0.89, 0.11656544758726
0.9, 0.11769875647794
0.91, 0.11882632889728
0.92, 0.11994810988899
0.93, 0.12106404477904
0.94, 0.12217407917835
0.95, 0.1232781589854
0.96, 0.1243762303889
0.97, 0.1254682398704
0.98, 0.1265541342069
0.99, 0.12763386047344
1, 0.12870736604568
*Amplitude, name=A2_2
0, 0
0.01, 0
0.02, 0
0.03, 0
0.04, 0
0.05, 0
0.06, 0
0.07, 0
0.08, 0
0.09, 0
0.1, 0
0.11, 0
0.12, 0
0.13, 0
0.14, 0
0.15, 0
0.16, 0
0.17, 0
0.18, 0
0.19, 0
0.2, 0
0.21, 0
0.22, 0
0.23, 0
0.24, 0
0.25, 0
0.26, 0
0.27, 0
0.28, 0
0.29, 0
0.3, 0
0.31, 0
0.32, 0
0.33, 0
0.34, 0
0.35, 0
0.36, 0
0.37, 0
0.38, 0
0.39, 0
0.4, 0
0.41, 0
0.42, 0
0.43, 0
0.44, 0
0.45, 0
0.46, 0
0.47, 0
0.48, 0
0.49, 0
0.5, 0
0.51, 0
0.52, 0
0.53, 0
0.54, 0
0.55, 0
0.56, 0
0.57, 0
0.58, 0
0.59, 0
0.6, 0
0.61, 0
0.62, 0
0.63, 0
0.64, 0
0.65, 0
0.66, 0
0.67, 0
0.68, 0
0.69, 0
0.7, 0
0.71, 0
0.72, 0
0.73, 0
0.74, 0
0.75, 0
0.76, 0
0.77, 0
0.78, 0
0.79, 0
0.8, 0
0.81, 0
0.82, 0
0.83, 0
0.84, 0
0.85, 0
0.86, 0
0.87, 0
0.88, 0
0.89, 0
0.9, 0
0.91, 0
0.92, 0
0.93, 0
0.94, 0
0.95, 0
0.96, 0
0.97, 0
0.98, 0
0.99, 0
1, 0
*Amplitude, name=A3_0
0, 0.00022483989024785
0.01, -0.0011772792223459
0.02, -0.0025890886738534
0.03, -0.0040105196546736
0.04, -0.005441502886266
0.05, -0.0068819686245266
0.06, -0.0083318466631875
0.07, -0.0097910663372386
0.08, -0.011259556526372
0.09, -0.012737245658447
0.1, -0.01422406171298
0.11, -0.015719932224654
0.12, -0.017224784286852
0.13, -0.018738544555206
0.14, -0.020261139251176
0.15, -0.021792494165646
0.16, -0.023332534662537
0.17, -0.024881185682448
0.18, -0.026438371746312
0.19, -0.028004016959079
0.2, -0.02957804501341
0.21, -0.031160379193396
0.22, -0.032750942378304
0.23, -0.034349657046327
0.24, -0.035956445278368
0.25, -0.037571228761835
0.26, -0.039193928794459
0.27, -0.04082446628813
0.28, -0.042462761772751
0.29, -0.044108735400112
0.3, -0.045762306947779
0.31, -0.047423395823009
0.32, -0.049091921066673
0.33, -0.050767801357204
0.34, -0.052450955014562
0.35, -0.054141300004213
0.36, -0.055838753941124
0.37, -0.057543234093788
0.38, -0.059254657388246
0.39, -0.06097294041214
0.4, -0.06269799941878
0.41, -0.064429750331225
0.42, -0.066168108746378
0.43, -0.067912989939101
0.44, -0.069664308866348
0.45, -0.071421980171305
0.46, -0.073185918187551
0.47, -0.074956036943237
0.48, -0.076732250165272
0.49, -0.078514471283529
0.5, -0.080302613435065
0.51, -0.082096589468354
0.52, -0.083896311947535
0.53, -0.085701693156675
0.54, -0.087512645104039
0.55, -0.089329079526385
0.56, -0.091150907893261
0.57, -0.092978041411324
0.58, -0.094810391028662
0.59, -0.096647867439142
0.6, -0.098490381086754
0.61, -0.10033784216998
0.62, -0.10219016064618
0.63, -0.10404724623596
0.64, -0.10590900842759
0.65, -0.10777535648141
0.66, -0.10964619943424
0.67, -0.11152144610384
0.68, -0.11340100509334
0.69, -0.11528478479567
0.7, -0.11717269339808
0.71, -0.11906463888656
0.72, -0.12096052905035
0.73, -0.12286027148645
0.74, -0.1247637736041
0.75, -0.12667094262927
0.76, -0.12858168560925
0.77, -0.13049590941711
0.78, -0.1324135207563
0.79, -0.13433442616513
0.8, -0.13625853202139
0.81, -0.13818574454688
0.82, -0.14011596981197
0.83, -0.1420491137402
0.84, -0.14398508211288
0.85, -0.14592378057363
0.86, -0.14786511463302
0.87, -0.14980898967318
0.88, -0.15175531095237
0.89, -0.15370398360964
0.9, -0.15565491266943
0.91, -0.15760800304622
0.92, -0.15956315954914
0.93, -0.16152028688661
0.94, -0.16347928967101
0.95, -0.16544007242331
0.96, -0.16740253957772
0.97, -0.16936659548637
0.98, -0.17133214442393
0.99, -0.17329909059234
1, -0.17526733812539
*Amplitude, name=A3_1
0, 0.00014148088579279
0.01, 0.0015344253044738
0.02, 0.0029175472195883
0.03, 0.0042907792197251
0.04, 0.0056540543754942
0.05, 0.0070073062427875
0.06, 0.0083504688660183
0.07, 0.0096834767813353
0.08, 0.011006265019813
0.09, 0.012318769110619
0.1, 0.013620925084156
0.11, 0.014912669475179
0.12, 0.016193939325888
0.13, 0.017464672188998
0.14, 0.018724806130783
0.15, 0.019974279734091
0.16, 0.021213032101343
0.17, 0.022441002857495
0.18, 0.023658132152985
0.19, 0.024864360666649
0.2, 0.02605962960861
0.21, 0.027243880723147
0.22, 0.02841705629153
0.23, 0.029579099134839
0.24, 0.030729952616743
0.25, 0.031869560646268
0.26, 0.032997867680526
0.27, 0.034114818727425
0.28, 0.035220359348345
0.29, 0.036314435660797
0.3, 0.037396994341046
0.31, 0.038467982626707
0.32, 0.039527348319323
0.33, 0.040575039786905
0.34, 0.041611005966448
0.35, 0.042635196366423
0.36, 0.043647561069234
0.37, 0.044648050733654
0.38, 0.045636616597228
0.39, 0.04661321047865
0.4, 0.047577784780114
0.41, 0.048530292489627
0.42, 0.049470687183308
0.43, 0.050398923027647
0.44, 0.051314954781738
0.45, 0.052218737799485
0.46, 0.053110228031779
0.47, 0.053989382028644
0.48, 0.054856156941355
0.49, 0.055710510524525
0.5, 0.056552401138165
0.51, 0.057381787749716
0.52, 0.058198629936043
0.53, 0.059002887885411
0.54, 0.059794522399422
0.55, 0.060573494894927
0.56, 0.061339767405904
0.57, 0.062093302585314
0.58, 0.062834063706915
0.59, 0.063562014667054
0.6, 0.064277119986428
0.61, 0.064979344811814
0.62, 0.065668654917764
0.63, 0.066345016708276
0.64, 0.06700839721843
0.65, 0.067658764115996
0.66, 0.06829608570301
0.67, 0.068920330917316
0.68, 0.069531469334083
0.69, 0.070129471167286
0.7, 0.070714307271161
0.71, 0.07128594914162
0.72, 0.071844368917646
0.73, 0.072389539382646
0.74, 0.07292143396578
0.75, 0.073440026743258
0.76, 0.073945292439599
0.77, 0.074437206428865
0.78, 0.074915744735863
0.79, 0.075380884037311
0.8, 0.075832601662976
0.81, 0.076270875596777
0.82, 0.076695684477862
0.83, 0.077107007601644
0.84, 0.077504824920816
0.85, 0.077889117046322
0.86, 0.078259865248306
0.87, 0.078617051457025
0.88, 0.078960658263725
0.89, 0.079290668921496
0.9, 0.079607067346084
0.91, 0.079909838116677
0.92, 0.080198966476654
0.93, 0.080474438334306
0.94, 0.080736240263525
0.95, 0.080984359504453
0.96, 0.081218783964108
0.97, 0.081439502216973
0.98, 0.081646503505553
0.99, 0.081839777740895
1, 0.082019315503087
*Amplitude, name=A3_2
0, 0
0.01, 0
0.02, 0
0.03, 0
0.04, 0
0.05, 0
0.06, 0
0.07, 0
0.08, 0
0.09, 0
0.1, 0
0.11, 0
0.12, 0
0.13, 0
0.14, 0
0.15, 0
0.16, 0
0.17, 0
0.18, 0
0.19, 0
0.2, 0
0.21, 0
0.22, 0
0.23, 0
0.24, 0
0.25, 0
0.26, 0
0.27, 0
0.28, 0
0.29, 0
0.3, 0
0.31, 0
0.32, 0
0.33, 0
0.34, 0
0.35, 0
0.36, 0
0.37, 0
0.38, 0
0.39, 0
0.4, 0
0.41, 0
0.42, 0
0.43, 0
0.44, 0
0.45, 0
0.46, 0
0.47, 0
0.48, 0
0.49, 0
0.5, 0
0.51, 0
0.52, 0
0.53, 0
0.54, 0
0.55, 0
0.56, 0
0.57, 0
0.58, 0
0.59, 0
0.6, 0
0.61, 0
0.62, 0
0.63, 0
0.64, 0
0.65, 0
0.66, 0
0.67, 0
0.68, 0
0.69, 0
0.7, 0
0.71, 0
0.72, 0
0.73, 0
0.74, 0
0.75, 0
0.76, 0
0.77, 0
0.78, 0
0.79, 0
0.8, 0
0.81, 0
0.82, 0
0.83, 0
0.84, 0
0.85, 0
0.86, 0
0.87, 0
0.88, 0
0.89, 0
0.9, 0
0.91, 0
0.92, 0
0.93, 0
0.94, 0
0.95, 0
0.96, 0
0.97, 0
0.98, 0
0.99, 0
1, 0
*Amplitude, name=A4_0
0, 4.316038802031e-05
0.01, -0.0013537791243478
0.02, -0.0027506526554313
0.03, -0.0041473921235849
0.04, -0.0055439294536975
0.05, -0.0069401965805099
0.06, -0.0083361254519321
0.07, -0.0097316480323603
0.08, -0.011126696305993
0.09, -0.012521202280145
0.1, -0.013915097988562
0.11, -0.015308315494735
0.12, -0.016700786895207
0.13, -0.018092444322888
0.14, -0.019483219950357
0.15, -0.020873045993172
0.16, -0.022261854713173
0.17, -0.023649578421782
0.18, -0.025036149483303
0.19, -0.026421500318219
0.2, -0.027805563406485
0.21, -0.029188271290818
0.22, -0.030569556579987
0.23, -0.031949351952096
0.24, -0.033327590157864
0.25, -0.034704204023906
0.26, -0.036079126456004
0.27, -0.037452290442379
0.28, -0.038823629056955
0.29, -0.040193075462623
0.3, -0.041560562914497
0.31, -0.042926024763167
0.32, -0.044289394457951
0.33, -0.045650605550131
0.34, -0.0470095916962
0.35, -0.04836628666109
0.36, -0.049720624321404
0.37, -0.051072538668633
0.38, -0.05242196381238
0.39, -0.053768833983567
0.4, -0.055113083537643
0.41, -0.056454646957779
0.42, -0.057793458858069
0.43, -0.059129453986708
0.44, -0.06046256722918
0.45, -0.061792733611424
0.46, -0.063119888303009
0.47, -0.064443966620287
0.48, -0.065764904029548
0.49, -0.067082636150168
0.5, -0.068397098757741
0.51, -0.069708227787214
0.52, -0.071015959336009
0.53, -0.072320229667135
0.54, -0.073620975212295
0.55, -0.074918132574987
0.56, -0.076211638533591
0.57, -0.077501430044451
0.58, -0.078787444244949
0.59, -0.080069618456567
0.6, -0.081347890187944
0.61, -0.082622197137917
0.62, -0.083892477198564
0.63, -0.085158668458227
0.64, -0.08642070920453
0.65, -0.087678537927388
0.66, -0.088932093322004
0.67, -0.090181314291855
0.68, -0.091426139951675
0.69, -0.092666509630417
0.7, -0.093902362874212
0.71, -0.095133639449317
0.72, -0.096360279345049
0.73, -0.09758222277671
0.74, -0.0987994101885
0.75, -0.10001178225642
0.76, -0.10121927989118
0.77, -0.10242184424102
0.78, -0.10361941669468
0.79, -0.10481193888415
0.8, -0.10599935268759
0.81, -0.10718160023212
0.82, -0.10835862389667
0.83, -0.10953036631476
0.84, -0.11069677037731
0.85, -0.11185777923545
0.86, -0.11301333630324
0.87, -0.11416338526046
0.88, -0.11530787005534
0.89, -0.1164467349073
0.9, -0.11757992430969
0.91, -0.11870738303245
0.92, -0.11982905612483
0.93, -0.12094488891807
0.94, -0.12205482702805
0.95, -0.12315881635796
0.96, -0.1242568031009
0.97, -0.12534873374257
0.98, -0.12643455506379
0.99, -0.12751421414317
1, -0.12858765835965
*Amplitude, name=A4_1
0, 9.8320497772475e-05
0.01, 9.3745556753566e-05
0.02, 7.9418328866465e-05
0.03, 5.5339512399888e-05
0.04, 2.1510280921522e-05
0.05, -2.2067716779683e-05
0.06, -7.5392356773607e-05
0.07, -0.0001384610400925
0.08, -0.00021127069285771
0.09, -0.00029381776642949
0.1, -0.00038609823757996
0.11, -0.00048810760868909
0.12, -0.00059984090796408
0.13, -0.00072129268968155
0.14, -0.000852457034453
0.15, -0.00099332754951331
0.16, -0.0011438973690323
0.17, -0.0013041591544494
0.18, -0.0014741050948313
0.19, -0.0016537269072527
0.2, -0.0018430158371996
0.21, -0.0020419626589969
0.22, -0.0022505576762571
0.23, -0.0024687907223532
0.24, -0.0026966511609146
0.25, -0.0029341278863449
0.26, -0.0031812093243635
0.27, -0.0034378834325698
0.28, -0.0037041377010298
0.29, -0.003979959152886
0.3, -0.0042653343449901
0.31, -0.0045602493685578
0.32, -0.0048646898498469
0.33, -0.0051786409508579
0.34, -0.005502087370057
0.35, -0.0058350133431221
0.36, -0.0061774026437108
0.37, -0.0065292385842518
0.38, -0.0068905040167577
0.39, -0.0072611813336609
0.4, -0.007641252468672
0.41, -0.0080306988976601
0.42, -0.0084295016395556
0.43, -0.0088376412572755
0.44, -0.0092550978586707
0.45, -0.0096818510974953
0.46, -0.010117880174399
0.47, -0.010563163837938
0.48, -0.011017680385617
0.49, -0.01148140766494
0.5, -0.011954323074493
0.51, -0.012436403565046
0.52, -0.012927625640677
0.53, -0.013427965359915
0.54, -0.013937398336906
0.55, -0.014455899742608
0.56, -0.014983444305993
0.57, -0.015520006315282
0.58, -0.016065559619202
0.59, -0.016620077628253
0.6, -0.017183533316009
0.61, -0.017755899220437
0.62, -0.018337147445228
0.63, -0.018927249661165
0.64, -0.019526177107497
0.65, -0.020133900593347
0.66, -0.020750390499129
0.67, -0.021375616777994
0.68, -0.022009548957296
0.69, -0.022652156140075
0.7, -0.023303407006563
0.71, -0.023963269815712
0.72, -0.02463171240674
0.73, -0.025308702200696
0.74, -0.025994206202055
0.75, -0.026688191000318
0.76, -0.027390622771646
0.77, -0.028101467280503
0.78, -0.028820689881333
0.79, -0.02954825552024
0.8, -0.030284128736702
0.81, -0.031028273665295
0.82, -0.031780654037447
0.83, -0.032541233183199
0.84, -0.033309974032996
0.85, -0.034086839119494
0.86, -0.034871790579385
0.87, -0.035664790155242
0.88, -0.036465799197384
0.89, -0.037274778665762
0.9, -0.038091689131856
0.91, -0.038916490780603
0.92, -0.039749143412334
0.93, -0.040589606444736
0.94, -0.041437838914825
0.95, -0.042293799480947
0.96, -0.043157446424792
0.97, -0.044028737653427
0.98, -0.044907630701345
0.99, -0.045794082732541
1, -0.046688050542592
*Amplitude, name=A4_2
0, 0
0.01, 0
0.02, 0
0.03, 0
0.04, 0
0.05, 0
0.06, 0
0.07, 0
0.08, 0
0.09, 0
0.1, 0
0.11, 0
0.12, 0
0.13, 0
0.14, 0
0.15, 0
0.16, 0
0.17, 0
0.18, 0
0.19, 0
0.2, 0
0.21, 0
0.22, 0
0.23, 0
0.24, 0
0.25, 0
0.26, 0
0.27, 0
0.28, 0
0.29, 0
0.3, 0
0.31, 0
0.32, 0
0.33, 0
0.34, 0
0.35, 0
0.36, 0
0.37, 0
0.38, 0
0.39, 0
0.4, 0
0.41, 0
0.42, 0
0.43, 0
0.44, 0
0.45, 0
0.46, 0
0.47, 0
0.48, 0
0.49, 0
0.5, 0
0.51, 0
0.52, 0
0.53, 0
0.54, 0
0.55, 0
0.56, 0
0.57, 0
0.58, 0
0.59, 0
0.6, 0
0.61, 0
0.62, 0
0.63, 0
0.64, 0
0.65, 0
0.66, 0
0.67, 0
0.68, 0
0.69, 0
0.7, 0
0.71, 0
0.72, 0
0.73, 0
0.74, 0
0.75, 0
0.76, 0
0.77, 0
0.78, 0
0.79, 0
0.8, 0
0.81, 0
0.82, 0
0.83, 0
0.84, 0
0.85, 0
0.86, 0
0.87, 0
0.88, 0
0.89, 0
0.9, 0
0.91, 0
0.92, 0
0.93, 0
0.94, 0
0.95, 0
0.96, 0
0.97, 0
0.98, 0
0.99, 0
1, 0
*Amplitude, name=A5_0
0, 0
0.01, 0
0.02, 0
0.03, 0
0.04, 0
0.05, 0
0.06, 0
0.07, 0
0.08, 0
0.09, 0
0.1, 0
0.11, 0
0.12, 0
0.13, 0
0.14, 0
0.15, 0
0.16, 0
0.17, 0
0.18, 0
0.19, 0
0.2, 0
0.21, 0
0.22, 0
0.23, 0
0.24, 0
0.25, 0
0.26, 0
0.27, 0
0.28, 0
0.29, 0
0.3, 0
0.31, 0
0.32, 0
0.33, 0
0.34, 0
0.35, 0
0.36, 0
0.37, 0
0.38, 0
0.39, 0
0.4, 0
0.41, 0
0.42, 0
0.43, 0
0.44, 0
0.45, 0
0.46, 0
0.47, 0
0.48, 0
0.49, 0
0.5, 0
0.51, 0
0.52, 0
0.53, 0
0.54, 0
0.55, 0
0.56, 0
0.57, 0
0.58, 0
0.59, 0
0.6, 0
0.61, 0
0.62, 0
0.63, 0
0.64, 0
0.65, 0
0.66, 0
0.67, 0
0.68, 0
0.69, 0
0.7, 0
0.71, 0
0.72, 0
0.73, 0
0.74, 0
0.75, 0
0.76, 0
0.77, 0
0.78, 0
0.79, 0
0.8, 0
0.81, 0
0.82, 0
0.83, 0
0.84, 0
0.85, 0
0.86, 0
0.87, 0
0.88, 0
0.89, 0
0.9, 0
0.91, 0
0.92, 0
0.93, 0
0.94, 0
0.95, 0
0.96, 0
0.97, 0
0.98, 0
0.99, 0
1, 0
*Amplitude, name=A5_1
0, 0
0.01, 0
0.02, 0
0.03, 0
0.04, 0
0.05, 0
0.06, 0
0.07, 0
0.08, 0
0.09, 0
0.1, 0
0.11, 0
0.12, 0
0.13, 0
0.14, 0
0.15, 0
0.16, 0
0.17, 0
0.18, 0
0.19, 0
0.2, 0
0.21, 0
0.22, 0
0.23, 0
0.24, 0
0.25, 0
0.26, 0
0.27, 0
0.28, 0
0.29, 0
0.3, 0
0.31, 0
0.32, 0
0.33, 0
0.34, 0
0.35, 0
0.36, 0
0.37, 0
0.38, 0
0.39, 0
0.4, 0
0.41, 0
0.42, 0
0.43, 0
0.44, 0
0.45, 0
0.46, 0
0.47, 0
0.48, 0
0.49, 0
0.5, 0
0.51, 0
0.52, 0
0.53, 0
0.54, 0
0.55, 0
0.56, 0
0.57, 0
0.58, 0
0.59, 0
0.6, 0
0.61, 0
0.62, 0
0.63, 0
0.64, 0
0.65, 0
0.66, 0
0.67, 0
0.68, 0
0.69, 0
0.7, 0
0.71, 0
0.72, 0
0.73, 0
0.74, 0
0.75, 0
0.76, 0
0.77, 0
0.78, 0
0.79, 0
0.8, 0
0.81, 0
0.82, 0
0.83, 0
0.84, 0
0.85, 0
0.86, 0
0.87, 0
0.88, 0
0.89, 0
0.9, 0
0.91, 0
0.92, 0
0.93, 0
0.94, 0
0.95, 0
0.96, 0
0.97, 0
0.98, 0
0.99, 0
1, 0
*Amplitude, name=A5_2
0, -1.9999999999998e-05
0.01, -1.9999999999998e-05
0.02, -1.9999999999998e-05
0.03, -1.9999999999998e-05
0.04, -1.9999999999998e-05
0.05, -1.9999999999998e-05
0.06, -1.9999999999998e-05
0.07, -1.9999999999998e-05
0.08, -1.9999999999998e-05
0.09, -1.9999999999998e-05
0.1, -1.9999999999998e-05
0.11, -1.9999999999998e-05
0.12, -1.9999999999998e-05
0.13, -1.9999999999998e-05
0.14, -1.9999999999998e-05
0.15, -1.9999999999998e-05
0.16, -1.9999999999998e-05
0.17, -1.9999999999998e-05
0.18, -1.9999999999998e-05
0.19, -1.9999999999998e-05
0.2, -1.9999999999998e-05
0.21, -1.9999999999998e-05
0.22, -1.9999999999998e-05
0.23, -1.9999999999998e-05
0.24, -1.9999999999998e-05
0.25, -1.9999999999998e-05
0.26, -1.9999999999998e-05
0.27, -1.9999999999998e-05
0.28, -1.9999999999998e-05
0.29, -1.9999999999998e-05
0.3, -1.9999999999998e-05
0.31, -1.9999999999998e-05
0.32, -1.9999999999998e-05
0.33, -1.9999999999998e-05
0.34, -1.9999999999998e-05
0.35, -1.9999999999998e-05
0.36, -1.9999999999998e-05
0.37, -1.9999999999998e-05
0.38, -1.9999999999998e-05
0.39, -1.9999999999998e-05
0.4, -1.9999999999998e-05
0.41, -1.9999999999998e-05
0.42, -1.9999999999998e-05
0.43, -1.9999999999998e-05
0.44, -1.9999999999998e-05
0.45, -1.9999999999998e-05
0.46, -1.9999999999998e-05
0.47, -1.9999999999998e-05
0.48, -1.9999999999998e-05
0.49, -1.9999999999998e-05
0.5, -1.9999999999998e-05
0.51, -1.9999999999998e-05
0.52, -1.9999999999998e-05
0.53, -1.9999999999998e-05
0.54, -1.9999999999998e-05
0.55, -1.9999999999998e-05
0.56, -1.9999999999998e-05
0.57, -1.9999999999998e-05
0.58, -1.9999999999998e-05
0.59, -1.9999999999998e-05
0.6, -1.9999999999998e-05
0.61, -1.9999999999998e-05
0.62, -1.9999999999998e-05
0.63, -1.9999999999998e-05
0.64, -1.9999999999998e-05
0.65, -1.9999999999998e-05
0.66, -1.9999999999998e-05
0.67, -1.9999999999998e-05
0.68, -1.9999999999998e-05
0.69, -1.9999999999998e-05
0.7, -1.9999999999998e-05
0.71, -1.9999999999998e-05
0.72, -1.9999999999998e-05
0.73, -1.9999999999998e-05
0.74, -1.9999999999998e-05
0.75, -1.9999999999998e-05
0.76, -1.9999999999998e-05
0.77, -1.9999999999998e-05
0.78, -1.9999999999998e-05
0.79, -1.9999999999998e-05
0.8, -1.9999999999998e-05
0.81, -1.9999999999998e-05
0.82, -1.9999999999998e-05
0.83, -1.9999999999998e-05
0.84, -1.9999999999998e-05
0.85, -1.9999999999998e-05
0.86, -1.9999999999998e-05
0.87, -1.9999999999998e-05
0.88, -1.9999999999998e-05
0.89, -1.9999999999998e-05
0.9, -1.9999999999998e-05
0.91, -1.9999999999998e-05
0.92, -1.9999999999998e-05
0.93, -1.9999999999998e-05
0.94, -1.9999999999998e-05
0.95, -1.9999999999998e-05
0.96, -1.9999999999998e-05
0.97, -1.9999999999998e-05
0.98, -1.9999999999998e-05
0.99, -1.9999999999998e-05
1, -1.9999999999998e-05
*Amplitude, name=A6_0
0, 0.00018167950222754
0.01, 0.00017649990200184
0.02, 0.00016156398157787
0.03, 0.00013687246891125
0.04, 0.00010242656743151
0.05, 5.8227955983359e-05
0.06, 4.2787887446494e-06
0.07, -5.9418304878256e-05
0.08, -0.00013286022037891
0.09, -0.00021604337830194
0.1, -0.0003089637244176
0.11, -0.00041161672991927
0.12, -0.0005239973916443
0.13, -0.00064610023231781
0.14, -0.00077791930081961
0.15, -0.00091944817247425
0.16, -0.0010706799493642
0.17, -0.0012316072606659
0.18, -0.0014022222630095
0.19, -0.0015825166408602
0.2, -0.0017724816069246
0.21, -0.0019721079025781
0.22, -0.0021813857983167
0.23, -0.0024003050942311
0.24, -0.0026288551205036
0.25, -0.0028670247379284
0.26, -0.0031148023384543
0.27, -0.0033721758457507
0.28, -0.0036391327157958
0.29, -0.0039156599374885
0.3, -0.0042017440332821
0.31, -0.0044973710598414
0.32, -0.0048025266087222
0.33, -0.0051171958070735
0.34, -0.0054413633183625
0.35, -0.0057750133431221
0.36, -0.0061181296197207
0.37, -0.0064706954251552
0.38, -0.0068326935758655
0.39, -0.0072041064285725
0.4, -0.0075849158811377
0.41, -0.0079751033734457
0.42, -0.0083746498883085
0.43, -0.0087835359523928
0.44, -0.0092017416371685
0.45, -0.0096292465598806
0.46, -0.010066029884542
0.47, -0.010512070322951
0.48, -0.010967346135724
0.49, -0.011431835133361
0.5, -0.011905514677324
0.51, -0.012388361681139
0.52, -0.012880352611526
0.53, -0.01338146348954
0.54, -0.013891669891744
0.55, -0.014410946951398
0.56, -0.014939269359671
0.57, -0.015476611366873
0.58, -0.016022946783713
0.59, -0.016578248982574
0.6, -0.01714249089881
0.61, -0.017715645032067
0.62, -0.018297683447619
0.63, -0.018888577777737
0.64, -0.019488299223064
0.65, -0.020096818554022
0.66, -0.020714106112239
0.67, -0.021340131811989
0.68, -0.021974865141663
0.69, -0.022618275165254
0.7, -0.023270330523865
0.71, -0.023930999437238
0.72, -0.024600249705303
0.73, -0.025278048709744
0.74, -0.025964363415596
0.75, -0.026659160372846
0.76, -0.027362405718073
0.77, -0.02807406517609
0.78, -0.028794104061619
0.79, -0.02952248728098
0.8, -0.030259179333804
0.81, -0.031004144314758
0.82, -0.031757345915301
0.83, -0.032518747425448
0.84, -0.033288311735566
0.85, -0.034066001338174
0.86, -0.034851778329779
0.87, -0.035645604412719
0.88, -0.03644744089703
0.89, -0.037257248702334
0.9, -0.03807498835974
0.91, -0.038900620013772
0.92, -0.039734103424307
0.93, -0.040575397968539
0.94, -0.04142446264296
0.95, -0.042281256065355
0.96, -0.043145736476821
0.97, -0.044017861743803
0.98, -0.044897589360146
0.99, -0.045784876449166
1, -0.046679679765743
*Amplitude, name=A6_1
0, 4.3160388020319e-05
0.01, 0.0014406797477203
0.02, 0.0028381288907218
0.03, 0.0042354397073252
0.04, 0.0056325440945726
0.05, 0.0070293739595672
0.06, 0.0084258612227919
0.07, 0.0098219378214278
0.08, 0.011217535712671
0.09, 0.012612586877049
0.1, 0.014007023321736
0.11, 0.015400777083868
0.12, 0.016793780233852
0.13, 0.01818596487868
0.14, 0.019577263165236
0.15, 0.020967607283605
0.16, 0.022356929470375
0.17, 0.023745162011945
0.18, 0.025132237247817
0.19, 0.026518087573902
0.2, 0.02790264544581
0.21, 0.029285843382144
0.22, 0.030667613967787
0.23, 0.032047889857192
0.24, 0.033426603777657
0.25, 0.034803688532613
0.26, 0.03617907700489
0.27, 0.037552702159994
0.28, 0.038924497049375
0.29, 0.040294394813683
0.3, 0.041662328686036
0.31, 0.043028231995265
0.32, 0.04439203816917
0.33, 0.045753680737762
0.34, 0.047113093336505
0.35, 0.048470209709545
0.36, 0.049824963712944
0.37, 0.051177289317905
0.38, 0.052527120613985
0.39, 0.053874391812311
0.4, 0.055219037248786
0.41, 0.056560991387287
0.42, 0.057900188822864
0.43, 0.059236564284923
0.44, 0.060570052640408
0.45, 0.06190058889698
0.46, 0.063228108206177
0.47, 0.064552545866582
0.48, 0.065873837326972
0.49, 0.067191918189464
0.5, 0.068506724212658
0.51, 0.069818191314762
0.52, 0.07112625557672
0.53, 0.072430853245325
0.54, 0.073731920736328
0.55, 0.075029394637535
0.56, 0.076323211711897
0.57, 0.077613308900597
0.58, 0.078899623326117
0.59, 0.080182092295306
0.6, 0.081460653302438
0.61, 0.082735244032251
0.62, 0.084005802362992
0.63, 0.085272266369441
0.64, 0.086534574325927
0.65, 0.087792664709344
0.66, 0.089046476202139
0.67, 0.09029594769531
0.68, 0.091541018291379
0.69, 0.092781627307362
0.7, 0.094017714277724
0.71, 0.095249218957333
0.72, 0.096476081324386
0.73, 0.097698241583342
0.74, 0.098915640167836
0.75, 0.10012821774358
0.76, 0.10133591521124
0.77, 0.10253867370937
0.78, 0.1037364346172
0.79, 0.10492913955755
0.8, 0.10611673039968
0.81, 0.10729914926207
0.82, 0.10847633851531
0.83, 0.10964824078484
0.84, 0.11081479895381
0.85, 0.11197595616582
0.86, 0.11313165582769
0.87, 0.11428184161227
0.88, 0.11542645746111
0.89, 0.11656544758726
0.9, 0.11769875647794
0.91, 0.11882632889728
0.92, 0.11994810988899
0.93, 0.12106404477904
0.94, 0.12217407917835
0.95, 0.1232781589854
0.96, 0.1243762303889
0.97, 0.1254682398704
0.98, 0.1265541342069
0.99, 0.12763386047344
1, 0.12870736604568
*Amplitude, name=A6_2
0, -1.9999999999998e-05
0.01, -1.9999999999998e-05
0.02, -1.9999999999998e-05
0.03, -1.9999999999998e-05
0.04, -1.9999999999998e-05
0.05, -1.9999999999998e-05
0.06, -1.9999999999998e-05
0.07, -1.9999999999998e-05
0.08, -1.9999999999998e-05
0.09, -1.9999999999998e-05
0.1, -1.9999999999998e-05
0.11, -1.9999999999998e-05
0.12, -1.9999999999998e-05
0.13, -1.9999999999998e-05
0.14, -1.9999999999998e-05
0.15, -1.9999999999998e-05
0.16, -1.9999999999998e-05
0.17, -1.9999999999998e-05
0.18, -1.9999999999998e-05
0.19, -1.9999999999998e-05
0.2, -1.9999999999998e-05
0.21, -1.9999999999998e-05
0.22, -1.9999999999998e-05
0.23, -1.9999999999998e-05
0.24, -1.9999999999998e-05
0.25, -1.9999999999998e-05
0.26, -1.9999999999998e-05
0.27, -1.9999999999998e-05
0.28, -1.9999999999998e-05
0.29, -1.9999999999998e-05
0.3, -1.9999999999998e-05
0.31, -1.9999999999998e-05
0.32, -1.9999999999998e-05
0.33, -1.9999999999998e-05
0.34, -1.9999999999998e-05
0.35, -1.9999999999998e-05
0.36, -1.9999999999998e-05
0.37, -1.9999999999998e-05
0.38, -1.9999999999998e-05
0.39, -1.9999999999998e-05
0.4, -1.9999999999998e-05
0.41, -1.9999999999998e-05
0.42, -1.9999999999998e-05
0.43, -1.9999999999998e-05
0.44, -1.9999999999998e-05
0.45, -1.9999999999998e-05
0.46, -1.9999999999998e-05
0.47, -1.9999999999998e-05
0.48, -1.9999999999998e-05
0.49, -1.9999999999998e-05
0.5, -1.9999999999998e-05
0.51, -1.9999999999998e-05
0.52, -1.9999999999998e-05
0.53, -1.9999999999998e-05
0.54, -1.9999999999998e-05
0.55, -1.9999999999998e-05
0.56, -1.9999999999998e-05
0.57, -1.9999999999998e-05
0.58, -1.9999999999998e-05
0.59, -1.9999999999998e-05
0.6, -1.9999999999998e-05
0.61, -1.9999999999998e-05
0.62, -1.9999999999998e-05
0.63, -1.9999999999998e-05
0.64, -1.9999999999998e-05
0.65, -1.9999999999998e-05
0.66, -1.9999999999998e-05
0.67, -1.9999999999998e-05
0.68, -1.9999999999998e-05
0.69, -1.9999999999998e-05
0.7, -1.9999999999998e-05
0.71, -1.9999999999998e-05
0.72, -1.9999999999998e-05
0.73, -1.9999999999998e-05
0.74, -1.9999999999998e-05
0.75, -1.9999999999998e-05
0.76, -1.9999999999998e-05
0.77, -1.9999999999998e-05
0.78, -1.9999999999998e-05
0.79, -1.9999999999998e-05
0.8, -1.9999999999998e-05
0.81, -1.9999999999998e-05
0.82, -1.9999999999998e-05
0.83, -1.9999999999998e-05
0.84, -1.9999999999998e-05
0.85, -1.9999999999998e-05
0.86, -1.9999999999998e-05
0.87, -1.9999999999998e-05
0.88, -1.9999999999998e-05
0.89, -1.9999999999998e-05
0.9, -1.9999999999998e-05
0.91, -1.9999999999998e-05
0.92, -1.9999999999998e-05
0.93, -1.9999999999998e-05
0.94, -1.9999999999998e-05
0.95, -1.9999999999998e-05
0.96, -1.9999999999998e-05
0.97, -1.9999999999998e-05
0.98, -1.9999999999998e-05
0.99, -1.9999999999998e-05
1, -1.9999999999998e-05
*Amplitude, name=A7_0
0, 0.00022483989024785
0.01, -0.0011772792223459
0.02, -0.0025890886738534
0.03, -0.0040105196546736
0.04, -0.005441502886266
0.05, -0.0068819686245266
0.06, -0.0083318466631875
0.07, -0.0097910663372386
0.08, -0.011259556526372
0.09, -0.012737245658447
0.1, -0.01422406171298
0.11, -0.015719932224654
0.12, -0.017224784286852
0.13, -0.018738544555206
0.14, -0.020261139251176
0.15, -0.021792494165646
0.16, -0.023332534662537
0.17, -0.024881185682448
0.18, -0.026438371746312
0.19, -0.028004016959079
0.2, -0.02957804501341
0.21, -0.031160379193396
0.22, -0.032750942378304
0.23, -0.034349657046327
0.24, -0.035956445278368
0.25, -0.037571228761835
0.26, -0.039193928794459
0.27, -0.04082446628813
0.28, -0.042462761772751
0.29, -0.044108735400112
0.3, -0.045762306947779
0.31, -0.047423395823009
0.32, -0.049091921066673
0.33, -0.050767801357204
0.34, -0.052450955014562
0.35, -0.054141300004213
0.36, -0.055838753941124
0.37, -0.057543234093788
0.38, -0.059254657388246
0.39, -0.06097294041214
0.4, -0.06269799941878
0.41, -0.064429750331225
0.42, -0.066168108746378
0.43, -0.067912989939101
0.44, -0.069664308866348
0.45, -0.071421980171305
0.46, -0.073185918187551
0.47, -0.074956036943237
0.48, -0.076732250165272
0.49, -0.078514471283529
0.5, -0.080302613435065
0.51, -0.082096589468354
0.52, -0.083896311947535
0.53, -0.085701693156675
0.54, -0.087512645104039
0.55, -0.089329079526385
0.56, -0.091150907893261
0.57, -0.092978041411324
0.58, -0.094810391028662
0.59, -0.096647867439142
0.6, -0.098490381086754
0.61, -0.10033784216998
0.62, -0.10219016064618
0.63, -0.10404724623596
0.64, -0.10590900842759
0.65, -0.10777535648141
0.66, -0.10964619943424
0.67, -0.11152144610384
0.68, -0.11340100509334
0.69, -0.11528478479567
0.7, -0.11717269339808
0.71, -0.11906463888656
0.72, -0.12096052905035
0.73, -0.12286027148645
0.74, -0.1247637736041
0.75, -0.12667094262927
0.76, -0.12858168560925
0.77, -0.13049590941711
0.78, -0.1324135207563
0.79, -0.13433442616513
0.8, -0.13625853202139
0.81, -0.13818574454688
0.82, -0.14011596981197
0.83, -0.1420491137402
0.84, -0.14398508211288
0.85, -0.14592378057363
0.86, -0.14786511463302
0.87, -0.14980898967318
0.88, -0.15175531095237
0.89, -0.15370398360964
0.9, -0.15565491266943
0.91, -0.15760800304622
0.92, -0.15956315954914
0.93, -0.16152028688661
0.94, -0.16347928967101
0.95, -0.16544007242331
0.96, -0.16740253957772
0.97, -0.16936659548637
0.98, -0.17133214442393
0.99, -0.17329909059234
1, -0.17526733812539
*Amplitude, name=A7_1
0, 0.00014148088579279
0.01, 0.0015344253044738
0.02, 0.0029175472195883
0.03, 0.0042907792197251
0.04, 0.0056540543754942
0.05, 0.0070073062427875
0.06, 0.0083504688660183
0.07, 0.0096834767813353
0.08, 0.011006265019813
0.09, 0.012318769110619
0.1, 0.013620925084156
0.11, 0.014912669475179
0.12, 0.016193939325888
0.13, 0.017464672188998
0.14, 0.018724806130783
0.15, 0.019974279734091
0.16, 0.021213032101343
0.17, 0.022441002857495
0.18, 0.023658132152985
0.19, 0.024864360666649
0.2, 0.02605962960861
0.21, 0.027243880723147
0.22, 0.02841705629153
0.23, 0.029579099134839
0.24, 0.030729952616743
0.25, 0.031869560646268
0.26, 0.032997867680526
0.27, 0.034114818727425
0.28, 0.035220359348345
0.29, 0.036314435660797
0.3, 0.037396994341046
0.31, 0.038467982626707
0.32, 0.039527348319323
0.33, 0.040575039786905
0.34, 0.041611005966448
0.35, 0.042635196366423
0.36, 0.043647561069234
0.37, 0.044648050733654
0.38, 0.045636616597228
0.39, 0.04661321047865
0.4, 0.047577784780114
0.41, 0.048530292489627
0.42, 0.049470687183308
0.43, 0.050398923027647
0.44, 0.051314954781738
0.45, 0.052218737799485
0.46, 0.053110228031779
0.47, 0.053989382028644
0.48, 0.054856156941355
0.49, 0.055710510524525
0.5, 0.056552401138165
0.51, 0.057381787749716
0.52, 0.058198629936043
0.53, 0.059002887885411
0.54, 0.059794522399422
0.55, 0.060573494894927
0.56, 0.061339767405904
0.57, 0.062093302585314
0.58, 0.062834063706915
0.59, 0.063562014667054
0.6, 0.064277119986428
0.61, 0.064979344811814
0.62, 0.065668654917764
0.63, 0.066345016708276
0.64, 0.06700839721843
0.65, 0.067658764115996
0.66, 0.06829608570301
0.67, 0.068920330917316
0.68, 0.069531469334083
0.69, 0.070129471167286
0.7, 0.070714307271161
0.71, 0.07128594914162
0.72, 0.071844368917646
0.73, 0.072389539382646
0.74, 0.07292143396578
0.75, 0.073440026743258
0.76, 0.073945292439599
0.77, 0.074437206428865
0.78, 0.074915744735863
0.79, 0.075380884037311
0.8, 0.075832601662976
0.81, 0.076270875596777
0.82, 0.076695684477862
0.83, 0.077107007601644
0.84, 0.077504824920816
0.85, 0.077889117046322
0.86, 0.078259865248306
0.87, 0.078617051457025
0.88, 0.078960658263725
0.89, 0.079290668921496
0.9, 0.079607067346084
0.91, 0.079909838116677
0.92, 0.080198966476654
0.93, 0.080474438334306
0.94, 0.080736240263525
0.95, 0.080984359504453
0.96, 0.081218783964108
0.97, 0.081439502216973
0.98, 0.081646503505553
0.99, 0.081839777740895
1, 0.082019315503087
*Amplitude, name=A7_2
0, -1.9999999999998e-05
0.01, -1.9999999999998e-05
0.02, -1.9999999999998e-05
0.03, -1.9999999999998e-05
0.04, -1.9999999999998e-05
0.05, -1.9999999999998e-05
0.06, -1.9999999999998e-05
0.07, -1.9999999999998e-05
0.08, -1.9999999999998e-05
0.09, -1.9999999999998e-05
0.1, -1.9999999999998e-05
0.11, -1.9999999999998e-05
0.12, -1.9999999999998e-05
0.13, -1.9999999999998e-05
0.14, -1.9999999999998e-05
0.15, -1.9999999999998e-05
0.16, -1.9999999999998e-05
0.17, -1.9999999999998e-05
0.18, -1.9999999999998e-05
0.19, -1.9999999999998e-05
0.2, -1.9999999999998e-05
0.21, -1.9999999999998e-05
0.22, -1.9999999999998e-05
0.23, -1.9999999999998e-05
0.24, -1.9999999999998e-05
0.25, -1.9999999999998e-05
0.26, -1.9999999999998e-05
0.27, -1.9999999999998e-05
0.28, -1.9999999999998e-05
0.29, -1.9999999999998e-05
0.3, -1.9999999999998e-05
0.31, -1.9999999999998e-05
0.32, -1.9999999999998e-05
0.33, -1.9999999999998e-05
0.34, -1.9999999999998e-05
0.35, -1.9999999999998e-05
0.36, -1.9999999999998e-05
0.37, -1.9999999999998e-05
0.38, -1.9999999999998e-05
0.39, -1.9999999999998e-05
0.4, -1.9999999999998e-05
0.41, -1.9999999999998e-05
0.42, -1.9999999999998e-05
0.43, -1.9999999999998e-05
0.44, -1.9999999999998e-05
0.45, -1.9999999999998e-05
0.46, -1.9999999999998e-05
0.47, -1.9999999999998e-05
0.48, -1.9999999999998e-05
0.49, -1.9999999999998e-05
0.5, -1.9999999999998e-05
0.51, -1.9999999999998e-05
0.52, -1.9999999999998e-05
0.53, -1.9999999999998e-05
0.54, -1.9999999999998e-05
0.55, -1.9999999999998e-05
0.56, -1.9999999999998e-05
0.57, -1.9999999999998e-05
0.58, -1.9999999999998e-05
0.59, -1.9999999999998e-05
0.6, -1.9999999999998e-05
0.61, -1.9999999999998e-05
0.62, -1.9999999999998e-05
0.63, -1.9999999999998e-05
0.64, -1.9999999999998e-05
0.65, -1.9999999999998e-05
0.66, -1.9999999999998e-05
0.67, -1.9999999999998e-05
0.68, -1.9999999999998e-05
0.69, -1.9999999999998e-05
0.7, -1.9999999999998e-05
0.71, -1.9999999999998e-05
0.72, -1.9999999999998e-05
0.73, -1.9999999999998e-05
0.74, -1.9999999999998e-05
0.75, -1.9999999999998e-05
0.76, -1.9999999999998e-05
0.77, -1.9999999999998e-05
0.78, -1.9999999999998e-05
0.79, -1.9999999999998e-05
0.8, -1.9999999999998e-05
0.81, -1.9999999999998e-05
0.82, -1.9999999999998e-05
0.83, -1.9999999999998e-05
0.84, -1.9999999999998e-05
0.85, -1.9999999999998e-05
0.86, -1.9999999999998e-05
0.87, -1.9999999999998e-05
0.88, -1.9999999999998e-05
0.89, -1.9999999999998e-05
0.9, -1.9999999999998e-05
0.91, -1.9999999999998e-05
0.92, -1.9999999999998e-05
0.93, -1.9999999999998e-05
0.94, -1.9999999999998e-05
0.95, -1.9999999999998e-05
0.96, -1.9999999999998e-05
0.97, -1.9999999999998e-05
0.98, -1.9999999999998e-05
0.99, -1.9999999999998e-05
1, -1.9999999999998e-05
*Amplitude, name=A8_0
0, 4.316038802031e-05
0.01, -0.0013537791243478
0.02, -0.0027506526554313
0.03, -0.0041473921235849
0.04, -0.0055439294536975
0.05, -0.0069401965805099
0.06, -0.0083361254519321
0.07, -0.0097316480323603
0.08, -0.011126696305993
0.09, -0.012521202280145
0.1, -0.013915097988562
0.11, -0.015308315494735
0.12, -0.016700786895207
0.13, -0.018092444322888
0.14, -0.019483219950357
0.15, -0.020873045993172
0.16, -0.022261854713173
0.17, -0.023649578421782
0.18, -0.025036149483303
0.19, -0.026421500318219
0.2, -0.027805563406485
0.21, -0.029188271290818
0.22, -0.030569556579987
0.23, -0.031949351952096
0.24, -0.033327590157864
0.25, -0.034704204023906
0.26, -0.036079126456004
0.27, -0.037452290442379
0.28, -0.038823629056955
0.29, -0.040193075462623
0.3, -0.041560562914497
0.31, -0.042926024763167
0.32, -0.044289394457951
0.33, -0.045650605550131
0.34, -0.0470095916962
0.35, -0.04836628666109
0.36, -0.049720624321404
0.37, -0.051072538668633
0.38, -0.05242196381238
0.39, -0.053768833983567
0.4, -0.055113083537643
0.41, -0.056454646957779
0.42, -0.057793458858069
0.43, -0.059129453986708
0.44, -0.06046256722918
0.45, -0.061792733611424
0.46, -0.063119888303009
0.47, -0.064443966620287
0.48, -0.065764904029548
0.49, -0.067082636150168
0.5, -0.068397098757741
0.51, -0.069708227787214
0.52, -0.071015959336009
0.53, -0.072320229667135
0.54, -0.073620975212295
0.55, -0.074918132574987
0.56, -0.076211638533591
0.57, -0.077501430044451
0.58, -0.078787444244949
0.59, -0.080069618456567
0.6, -0.081347890187944
0.61, -0.082622197137917
0.62, -0.083892477198564
0.63, -0.085158668458227
0.64, -0.08642070920453
0.65, -0.087678537927388
0.66, -0.088932093322004
0.67, -0.090181314291855
0.68, -0.091426139951675
0.69, -0.092666509630417
0.7, -0.093902362874212
0.71, -0.095133639449317
0.72, -0.096360279345049
0.73, -0.09758222277671
0.74, -0.0987994101885
0.75, -0.10001178225642
0.76, -0.10121927989118
0.77, -0.10242184424102
0.78, -0.10361941669468
0.79, -0.10481193888415
0.8, -0.10599935268759
0.81, -0.10718160023212
0.82, -0.10835862389667
0.83, -0.10953036631476
0.84, -0.11069677037731
0.85, -0.11185777923545
0.86, -0.11301333630324
0.87, -0.11416338526046
0.88, -0.11530787005534
0.89, -0.1164467349073
0.9, -0.11757992430969
0.91, -0.11870738303245
0.92, -0.11982905612483
0.93, -0.12094488891807
0.94, -0.12205482702805
0.95, -0.12315881635796
0.96, -0.1242568031009
0.97, -0.12534873374257
0.98, -0.12643455506379
0.99, -0.12751421414317
1, -0.12858765835965
*Amplitude, name=A8_1
0, 9.8320497772475e-05
0.01, 9.3745556753566e-05
0.02, 7.9418328866465e-05
0.03, 5.5339512399888e-05
0.04, 2.1510280921522e-05
0.05, -2.2067716779683e-05
0.06, -7.5392356773607e-05
0.07, -0.0001384610400925
0.08, -0.00021127069285771
0.09, -0.00029381776642949
0.1, -0.00038609823757996
0.11, -0.00048810760868909
0.12, -0.00059984090796408
0.13, -0.00072129268968155
0.14, -0.000852457034453
0.15, -0.00099332754951331
0.16, -0.0011438973690323
0.17, -0.0013041591544494
0.18, -0.0014741050948313
0.19, -0.0016537269072527
0.2, -0.0018430158371996
0.21, -0.0020419626589969
0.22, -0.0022505576762571
0.23, -0.0024687907223532
0.24, -0.0026966511609146
0.25, -0.0029341278863449
0.26, -0.0031812093243635
0.27, -0.0034378834325698
0.28, -0.0037041377010298
0.29, -0.003979959152886
0.3, -0.0042653343449901
0.31, -0.0045602493685578
0.32, -0.0048646898498469
0.33, -0.0051786409508579
0.34, -0.005502087370057
0.35, -0.0058350133431221
0.36, -0.0061774026437108
0.37, -0.0065292385842518
0.38, -0.0068905040167577
0.39, -0.0072611813336609
0.4, -0.007641252468672
0.41, -0.0080306988976601
0.42, -0.0084295016395556
0.43, -0.0088376412572755
0.44, -0.0092550978586707
0.45, -0.0096818510974953
0.46, -0.010117880174399
0.47, -0.010563163837938
0.48, -0.011017680385617
0.49, -0.01148140766494
0.5, -0.011954323074493
0.51, -0.012436403565046
0.52, -0.012927625640677
0.53, -0.013427965359915
0.54, -0.013937398336906
0.55, -0.014455899742608
0.56, -0.014983444305993
0.57, -0.015520006315282
0.58, -0.016065559619202
0.59, -0.016620077628253
0.6, -0.017183533316009
0.61, -0.017755899220437
0.62, -0.018337147445228
0.63, -0.018927249661165
0.64, -0.019526177107497
0.65, -0.020133900593347
0.66, -0.020750390499129
0.67, -0.021375616777994
0.68, -0.022009548957296
0.69, -0.022652156140075
0.7, -0.023303407006563
0.71, -0.023963269815712
0.72, -0.02463171240674
0.73, -0.025308702200696
0.74, -0.025994206202055
0.75, -0.026688191000318
0.76, -0.027390622771646
0.77, -0.028101467280503
0.78, -0.028820689881333
0.79, -0.02954825552024
0.8, -0.030284128736702
0.81, -0.031028273665295
0.82, -0.031780654037447
0.83, -0.032541233183199
0.84, -0.033309974032996
0.85, -0.034086839119494
0.86, -0.034871790579385
0.87, -0.035664790155242
0.88, -0.036465799197384
0.89, -0.037274778665762
0.9, -0.038091689131856
0.91, -0.038916490780603
0.92, -0.039749143412334
0.93, -0.040589606444736
0.94, -0.041437838914825
0.95, -0.042293799480947
0.96, -0.043157446424792
0.97, -0.044028737653427
0.98, -0.044907630701345
0.99, -0.045794082732541
1, -0.046688050542592
*Amplitude, name=A8_2
0, -1.9999999999998e-05
0.01, -1.9999999999998e-05
0.02, -1.9999999999998e-05
0.03, -1.9999999999998e-05
0.04, -1.9999999999998e-05
0.05, -1.9999999999998e-05
0.06, -1.9999999999998e-05
0.07, -1.9999999999998e-05
0.08, -1.9999999999998e-05
0.09, -1.9999999999998e-05
0.1, -1.9999999999998e-05
0.11, -1.9999999999998e-05
0.12, -1.9999999999998e-05
0.13, -1.9999999999998e-05
0.14, -1.9999999999998e-05
0.15, -1.9999999999998e-05
0.16, -1.9999999999998e-05
0.17, -1.9999999999998e-05
0.18, -1.9999999999998e-05
0.19, -1.9999999999998e-05
0.2, -1.9999999999998e-05
0.21, -1.9999999999998e-05
0.22, -1.9999999999998e-05
0.23, -1.9999999999998e-05
0.24, -1.9999999999998e-05
0.25, -1.9999999999998e-05
0.26, -1.9999999999998e-05
0.27, -1.9999999999998e-05
0.28, -1.9999999999998e-05
0.29, -1.9999999999998e-05
0.3, -1.9999999999998e-05
0.31, -1.9999999999998e-05
0.32, -1.9999999999998e-05
0.33, -1.9999999999998e-05
0.34, -1.9999999999998e-05
0.35, -1.9999999999998e-05
0.36, -1.9999999999998e-05
0.37, -1.9999999999998e-05
0.38, -1.9999999999998e-05
0.39, -1.9999999999998e-05
0.4, -1.9999999999998e-05
0.41, -1.9999999999998e-05
0.42, -1.9999999999998e-05
0.43, -1.9999999999998e-05
0.44, -1.9999999999998e-05
0.45, -1.9999999999998e-05
0.46, -1.9999999999998e-05
0.47, -1.9999999999998e-05
0.48, -1.9999999999998e-05
0.49, -1.9999999999998e-05
0.5, -1.9999999999998e-05
0.51, -1.9999999999998e-05
0.52, -1.9999999999998e-05
0.53, -1.9999999999998e-05
0.54, -1.9999999999998e-05
0.55, -1.9999999999998e-05
0.56, -1.9999999999998e-05
0.57, -1.9999999999998e-05
0.58, -1.9999999999998e-05
0.59, -1.9999999999998e-05
0.6, -1.9999999999998e-05
0.61, -1.9999999999998e-05
0.62, -1.9999999999998e-05
0.63, -1.9999999999998e-05
0.64, -1.9999999999998e-05
0.65, -1.9999999999998e-05
0.66, -1.9999999999998e-05
0.67, -1.9999999999998e-05
0.68, -1.9999999999998e-05
0.69, -1.9999999999998e-05
0.7, -1.9999999999998e-05
0.71, -1.9999999999998e-05
0.72, -1.9999999999998e-05
0.73, -1.9999999999998e-05
0.74, -1.9999999999998e-05
0.75, -1.9999999999998e-05
0.76, -1.9999999999998e-05
0.77, -1.9999999999998e-05
0.78, -1.9999999999998e-05
0.79, -1.9999999999998e-05
0.8, -1.9999999999998e-05
0.81, -1.9999999999998e-05
0.82, -1.9999999999998e-05
0.83, -1.9999999999998e-05
0.84, -1.9999999999998e-05
0.85, -1.9999999999998e-05
0.86, -1.9999999999998e-05
0.87, -1.9999999999998e-05
0.88, -1.9999999999998e-05
0.89, -1.9999999999998e-05
0.9, -1.9999999999998e-05
0.91, -1.9999999999998e-05
0.92, -1.9999999999998e-05
0.93, -1.9999999999998e-05
0.94, -1.9999999999998e-05
0.95, -1.9999999999998e-05
0.96, -1.9999999999998e-05
0.97, -1.9999999999998e-05
0.98, -1.9999999999998e-05
0.99, -1.9999999999998e-05
1, -1.9999999999998e-05
*Amplitude, name=A9_0
0, 0
0.01, 0
0.02, 0
0.03, 0
0.04, 0
0.05, 0
0.06, 0
0.07, 0
0.08, 0
0.09, 0
0.1, 0
0.11, 0
0.12, 0
0.13, 0
0.14, 0
0.15, 0
0.16, 0
0.17, 0
0.18, 0
0.19, 0
0.2, 0
0.21, 0
0.22, 0
0.23, 0
0.24, 0
0.25, 0
0.26, 0
0.27, 0
0.28, 0
0.29, 0
0.3, 0
0.31, 0
0.32, 0
0.33, 0
0.34, 0
0.35, 0
0.36, 0
0.37, 0
0.38, 0
0.39, 0
0.4, 0
0.41, 0
0.42, 0
0.43, 0
0.44, 0
0.45, 0
0.46, 0
0.47, 0
0.48, 0
0.49, 0
0.5, 0
0.51, 0
0.52, 0
0.53, 0
0.54, 0
0.55, 0
0.56, 0
0.57, 0
0.58, 0
0.59, 0
0.6, 0
0.61, 0
0.62, 0
0.63, 0
0.64, 0
0.65, 0
0.66, 0
0.67, 0
0.68, 0
0.69, 0
0.7, 0
0.71, 0
0.72, 0
0.73, 0
0.74, 0
0.75, 0
0.76, 0
0.77, 0
0.78, 0
0.79, 0
0.8, 0
0.81, 0
0.82, 0
0.83, 0
0.84, 0
0.85, 0
0.86, 0
0.87, 0
0.88, 0
0.89, 0
0.9, 0
0.91, 0
0.92, 0
0.93, 0
0.94, 0
0.95, 0
0.96, 0
0.97, 0
0.98, 0
0.99, 0
1, 0
*Amplitude, name=A9_1
0, 0
0.01, 0
0.02, 0
0.03, 0
0.04, 0
0.05, 0
0.06, 0
0.07, 0
0.08, 0
0.09, 0
0.1, 0
0.11, 0
0.12, 0
0.13, 0
0.14, 0
0.15, 0
0.16, 0
0.17, 0
0.18, 0
0.19, 0
0.2, 0
0.21, 0
0.22, 0
0.23, 0
0.24, 0
0.25, 0
0.26, 0
0.27, 0
0.28, 0
0.29, 0
0.3, 0
0.31, 0
0.32, 0
0.33, 0
0.34, 0
0.35, 0
0.36, 0
0.37, 0
0.38, 0
0.39, 0
0.4, 0
0.41, 0
0.42, 0
0.43, 0
0.44, 0
0.45, 0
0.46, 0
0.47, 0
0.48, 0
0.49, 0
0.5, 0
0.51, 0
0.52, 0
0.53, 0
0.54, 0
0.55, 0
0.56, 0
0.57, 0
0.58, 0
0.59, 0
0.6, 0
0.61, 0
0.62, 0
0.63, 0
0.64, 0
0.65, 0
0.66, 0
0.67, 0
0.68, 0
0.69, 0
0.7, 0
0.71, 0
0.72, 0
0.73, 0
0.74, 0
0.75, 0
0.76, 0
0.77, 0
0.78, 0
0.79, 0
0.8, 0
0.81, 0
0.82, 0
0.83, 0
0.84, 0
0.85, 0
0.86, 0
0.87, 0
0.88, 0
0.89, 0
0.9, 0
0.91, 0
0.92, 0
0.93, 0
0.94, 0
0.95, 0
0.96, 0
0.97, 0
0.98, 0
0.99, 0
1, 0
*Amplitude, name=A9_2
0, 0
0.01, 0
0.02, 0
0.03, 0
0.04, 0
0.05, 0
0.06, 0
0.07, 0
0.08, 0
0.09, 0
0.1, 0
0.11, 0
0.12, 0
0.13, 0
0.14, 0
0.15, 0
0.16, 0
0.17, 0
0.18, 0
0.19, 0
0.2, 0
0.21, 0
0.22, 0
0.23, 0
0.24, 0
0.25, 0
0.26, 0
0.27, 0
0.28, 0
0.29, 0
0.3, 0
0.31, 0
0.32, 0
0.33, 0
0.34, 0
0.35, 0
0.36, 0
0.37, 0
0.38, 0
0.39, 0
0.4, 0
0.41, 0
0.42, 0
0.43, 0
0.44, 0
0.45, 0
0.46, 0
0.47, 0
0.48, 0
0.49, 0
0.5, 0
0.51, 0
0.52, 0
0.53, 0
0.54, 0
0.55, 0
0.56, 0
0.57, 0
0.58, 0
0.59, 0
0.6, 0
0.61, 0
0.62, 0
0.63, 0
0.64, 0
0.65, 0
0.66, 0
0.67, 0
0.68, 0
0.69, 0
0.7, 0
0.71, 0
0.72, 0
0.73, 0
0.74, 0
0.75, 0
0.76, 0
0.77, 0
0.78, 0
0.79, 0
0.8, 0
0.81, 0
0.82, 0
0.83, 0
0.84, 0
0.85, 0
0.86, 0
0.87, 0
0.88, 0
0.89, 0
0.9, 0
0.91, 0
0.92, 0
0.93, 0
0.94, 0
0.95, 0
0.96, 0
0.97, 0
0.98, 0
0.99, 0
1, 0
*Amplitude, name=A10_0
0, 0.00018167950222754
0.01, 0.00017649990200184
0.02, 0.00016156398157787
0.03, 0.00013687246891125
0.04, 0.00010242656743151
0.05, 5.8227955983359e-05
0.06, 4.2787887446494e-06
0.07, -5.9418304878256e-05
0.08, -0.00013286022037891
0.09, -0.00021604337830194
0.1, -0.0003089637244176
0.11, -0.00041161672991927
0.12, -0.0005239973916443
0.13, -0.00064610023231781
0.14, -0.00077791930081961
0.15, -0.00091944817247425
0.16, -0.0010706799493642
0.17, -0.0012316072606659
0.18, -0.0014022222630095
0.19, -0.0015825166408602
0.2, -0.0017724816069246
0.21, -0.0019721079025781
0.22, -0.0021813857983167
0.23, -0.0024003050942311
0.24, -0.0026288551205036
0.25, -0.0028670247379284
0.26, -0.0031148023384543
0.27, -0.0033721758457507
0.28, -0.0036391327157958
0.29, -0.0039156599374885
0.3, -0.0042017440332821
0.31, -0.0044973710598414
0.32, -0.0048025266087222
0.33, -0.0051171958070735
0.34, -0.0054413633183625
0.35, -0.0057750133431221
0.36, -0.0061181296197207
0.37, -0.0064706954251552
0.38, -0.0068326935758655
0.39, -0.0072041064285725
0.4, -0.0075849158811377
0.41, -0.0079751033734457
0.42, -0.0083746498883085
0.43, -0.0087835359523928
0.44, -0.0092017416371685
0.45, -0.0096292465598806
0.46, -0.010066029884542
0.47, -0.010512070322951
0.48, -0.010967346135724
0.49, -0.011431835133361
0.5, -0.011905514677324
0.51, -0.012388361681139
0.52, -0.012880352611526
0.53, -0.01338146348954
0.54, -0.013891669891744
0.55, -0.014410946951398
0.56, -0.014939269359671
0.57, -0.015476611366873
0.58, -0.016022946783713
0.59, -0.016578248982574
0.6, -0.01714249089881
0.61, -0.017715645032067
0.62, -0.018297683447619
0.63, -0.018888577777737
0.64, -0.019488299223064
0.65, -0.020096818554022
0.66, -0.020714106112239
0.67, -0.021340131811989
0.68, -0.021974865141663
0.69, -0.022618275165254
0.7, -0.023270330523865
0.71, -0.023930999437238
0.72, -0.024600249705303
0.73, -0.025278048709744
0.74, -0.025964363415596
0.75, -0.026659160372846
0.76, -0.027362405718073
0.77, -0.02807406517609
0.78, -0.028794104061619
0.79, -0.02952248728098
0.8, -0.030259179333804
0.81, -0.031004144314758
0.82, -0.031757345915301
0.83, -0.032518747425448
0.84, -0.033288311735566
0.85, -0.034066001338174
0.86, -0.034851778329779
0.87, -0.035645604412719
0.88, -0.03644744089703
0.89, -0.037257248702334
0.9, -0.03807498835974
0.91, -0.038900620013772
0.92, -0.039734103424307
0.93, -0.040575397968539
0.94, -0.04142446264296
0.95, -0.042281256065355
0.96, -0.043145736476821
0.97, -0.044017861743803
0.98, -0.044897589360146
0.99, -0.045784876449166
1, -0.046679679765743
*Amplitude, name=A10_1
0, 4.3160388020319e-05
0.01, 0.0014406797477203
0.02, 0.0028381288907218
0.03, 0.0042354397073252
0.04, 0.0056325440945726
0.05, 0.0070293739595672
0.06, 0.0084258612227919
0.07, 0.0098219378214278
0.08, 0.011217535712671
0.09, 0.012612586877049
0.1, 0.014007023321736
0.11, 0.015400777083868
0.12, 0.016793780233852
0.13, 0.01818596487868
0.14, 0.019577263165236
0.15, 0.020967607283605
0.16, 0.022356929470375
0.17, 0.023745162011945
0.18, 0.025132237247817
0.19, 0.026518087573902
0.2, 0.02790264544581
0.21, 0.029285843382144
0.22, 0.030667613967787
0.23, 0.032047889857192
0.24, 0.033426603777657
0.25, 0.034803688532613
0.26, 0.03617907700489
0.27, 0.037552702159994
0.28, 0.038924497049375
0.29, 0.040294394813683
0.3, 0.041662328686036
0.31, 0.043028231995265
0.32, 0.04439203816917
0.33, 0.045753680737762
0.34, 0.047113093336505
0.35, 0.048470209709545
0.36, 0.049824963712944
0.37, 0.051177289317905
0.38, 0.052527120613985
0.39, 0.053874391812311
0.4, 0.055219037248786
0.41, 0.056560991387287
0.42, 0.057900188822864
0.43, 0.059236564284923
0.44, 0.060570052640408
0.45, 0.06190058889698
0.46, 0.063228108206177
0.47, 0.064552545866582
0.48, 0.065873837326972
0.49, 0.067191918189464
0.5, 0.068506724212658
0.51, 0.069818191314762
0.52, 0.07112625557672
0.53, 0.072430853245325
0.54, 0.073731920736328
0.55, 0.075029394637535
0.56, 0.076323211711897
0.57, 0.077613308900597
0.58, 0.078899623326117
0.59, 0.080182092295306
0.6, 0.081460653302438
0.61, 0.082735244032251
0.62, 0.084005802362992
0.63, 0.085272266369441
0.64, 0.086534574325927
0.65, 0.087792664709344
0.66, 0.089046476202139
0.67, 0.09029594769531
0.68, 0.091541018291379
0.69, 0.092781627307362
0.7, 0.094017714277724
0.71, 0.095249218957333
0.72, 0.096476081324386
0.73, 0.097698241583342
0.74, 0.098915640167836
0.75, 0.10012821774358
0.76, 0.10133591521124
0.77, 0.10253867370937
0.78, 0.1037364346172
0.79, 0.10492913955755
0.8, 0.10611673039968
0.81, 0.10729914926207
0.82, 0.10847633851531
0.83, 0.10964824078484
0.84, 0.11081479895381
0.85, 0.11197595616582
0.86, 0.11313165582769
0.87, 0.11428184161227
0.88, 0.11542645746111
0.89, 0.11656544758726
0.9, 0.11769875647794
0.91, 0.11882632889728
0.92, 0.11994810988899
0.93, 0.12106404477904
0.94, 0.12217407917835
0.95, 0.1232781589854
0.96, 0.1243762303889
0.97, 0.1254682398704
0.98, 0.1265541342069
0.99, 0.12763386047344
1, 0.12870736604568
*Amplitude, name=A10_2
0, 0
0.01, 0
0.02, 0
0.03, 0
0.04, 0
0.05, 0
0.06, 0
0.07, 0
0.08, 0
0.09, 0
0.1, 0
0.11, 0
0.12, 0
0.13, 0
0.14, 0
0.15, 0
0.16, 0
0.17, 0
0.18, 0
0.19, 0
0.2, 0
0.21, 0
0.22, 0
0.23, 0
0.24, 0
0.25, 0
0.26, 0
0.27, 0
0.28, 0
0.29, 0
0.3, 0
0.31, 0
0.32, 0
0.33, 0
0.34, 0
0.35, 0
0.36, 0
0.37, 0
0.38, 0
0.39, 0
0.4, 0
0.41, 0
0.42, 0
0.43, 0
0.44, 0
0.45, 0
0.46, 0
0.47, 0
0.48, 0
0.49, 0
0.5, 0
0.51, 0
0.52, 0
0.53, 0
0.54, 0
0.55, 0
0.56, 0
0.57, 0
0.58, 0
0.59, 0
0.6, 0
0.61, 0
0.62, 0
0.63, 0
0.64, 0
0.65, 0
0.66, 0
0.67, 0
0.68, 0
0.69, 0
0.7, 0
0.71, 0
0.72, 0
0.73, 0
0.74, 0
0.75, 0
0.76, 0
0.77, 0
0.78, 0
0.79, 0
0.8, 0
0.81, 0
0.82, 0
0.83, 0
0.84, 0
0.85, 0
0.86, 0
0.87, 0
0.88, 0
0.89, 0
0.9, 0
0.91, 0
0.92, 0
0.93, 0
0.94, 0
0.95, 0
0.96, 0
0.97, 0
0.98, 0
0.99, 0
1, 0
*Amplitude, name=A11_0
0, 0.00022483989024785
0.01, -0.0011772792223459
0.02, -0.0025890886738534
0.03, -0.0040105196546736
0.04, -0.005441502886266
0.05, -0.0068819686245266
0.06, -0.0083318466631875
0.07, -0.0097910663372386
0.08, -0.011259556526372
0.09, -0.012737245658447
0.1, -0.01422406171298
0.11, -0.015719932224654
0.12, -0.017224784286852
0.13, -0.018738544555206
0.14, -0.020261139251176
0.15, -0.021792494165646
0.16, -0.023332534662537
0.17, -0.024881185682448
0.18, -0.026438371746312
0.19, -0.028004016959079
0.2, -0.02957804501341
0.21, -0.031160379193396
0.22, -0.032750942378304
0.23, -0.034349657046327
0.24, -0.035956445278368
0.25, -0.037571228761835
0.26, -0.039193928794459
0.27, -0.04082446628813
0.28, -0.042462761772751
0.29, -0.044108735400112
0.3, -0.045762306947779
0.31, -0.047423395823009
0.32, -0.049091921066673
0.33, -0.050767801357204
0.34, -0.052450955014562
0.35, -0.054141300004213
0.36, -0.055838753941124
0.37, -0.057543234093788
0.38, -0.059254657388246
0.39, -0.06097294041214
0.4, -0.06269799941878
0.41, -0.064429750331225
0.42, -0.066168108746378
0.43, -0.067912989939101
0.44, -0.069664308866348
0.45, -0.071421980171305
0.46, -0.073185918187551
0.47, -0.074956036943237
0.48, -0.076732250165272
0.49, -0.078514471283529
0.5, -0.080302613435065
0.51, -0.082096589468354
0.52, -0.083896311947535
0.53, -0.085701693156675
0.54, -0.087512645104039
0.55, -0.089329079526385
0.56, -0.091150907893261
0.57, -0.092978041411324
0.58, -0.094810391028662
0.59, -0.096647867439142
0.6, -0.098490381086754
0.61, -0.10033784216998
0.62, -0.10219016064618
0.63, -0.10404724623596
0.64, -0.10590900842759
0.65, -0.10777535648141
0.66, -0.10964619943424
0.67, -0.11152144610384
0.68, -0.11340100509334
0.69, -0.11528478479567
0.7, -0.11717269339808
0.71, -0.11906463888656
0.72, -0.12096052905035
0.73, -0.12286027148645
0.74, -0.1247637736041
0.75, -0.12667094262927
0.76, -0.12858168560925
0.77, -0.13049590941711
0.78, -0.1324135207563
0.79, -0.13433442616513
0.8, -0.13625853202139
0.81, -0.13818574454688
0.82, -0.14011596981197
0.83, -0.1420491137402
0.84, -0.14398508211288
0.85, -0.14592378057363
0.86, -0.14786511463302
0.87, -0.14980898967318
0.88, -0.15175531095237
0.89, -0.15370398360964
0.9, -0.15565491266943
0.91, -0.15760800304622
0.92, -0.15956315954914
0.93, -0.16152028688661
0.94, -0.16347928967101
0.95, -0.16544007242331
0.96, -0.16740253957772
0.97, -0.16936659548637
0.98, -0.17133214442393
0.99, -0.17329909059234
1, -0.17526733812539
*Amplitude, name=A11_1
0, 0.00014148088579279
0.01, 0.0015344253044738
0.02, 0.0029175472195883
0.03, 0.0042907792197251
0.04, 0.0056540543754942
0.05, 0.0070073062427875
0.06, 0.0083504688660183
0.07, 0.0096834767813353
0.08, 0.011006265019813
0.09, 0.012318769110619
0.1, 0.013620925084156
0.11, 0.014912669475179
0.12, 0.016193939325888
0.13, 0.017464672188998
0.14, 0.018724806130783
0.15, 0.019974279734091
0.16, 0.021213032101343
0.17, 0.022441002857495
0.18, 0.023658132152985
0.19, 0.024864360666649
0.2, 0.02605962960861
0.21, 0.027243880723147
0.22, 0.02841705629153
0.23, 0.029579099134839
0.24, 0.030729952616743
0.25, 0.031869560646268
0.26, 0.032997867680526
0.27, 0.034114818727425
0.28, 0.035220359348345
0.29, 0.036314435660797
0.3, 0.037396994341046
0.31, 0.038467982626707
0.32, 0.039527348319323
0.33, 0.040575039786905
0.34, 0.041611005966448
0.35, 0.042635196366423
0.36, 0.043647561069234
0.37, 0.044648050733654
0.38, 0.045636616597228
0.39, 0.04661321047865
0.4, 0.047577784780114
0.41, 0.048530292489627
0.42, 0.049470687183308
0.43, 0.050398923027647
0.44, 0.051314954781738
0.45, 0.052218737799485
0.46, 0.053110228031779
0.47, 0.053989382028644
0.48, 0.054856156941355
0.49, 0.055710510524525
0.5, 0.056552401138165
0.51, 0.057381787749716
0.52, 0.058198629936043
0.53, 0.059002887885411
0.54, 0.059794522399422
0.55, 0.060573494894927
0.56, 0.061339767405904
0.57, 0.062093302585314
0.58, 0.062834063706915
0.59, 0.063562014667054
0.6, 0.064277119986428
0.61, 0.064979344811814
0.62, 0.065668654917764
0.63, 0.066345016708276
0.64, 0.06700839721843
0.65, 0.067658764115996
0.66, 0.06829608570301
0.67, 0.068920330917316
0.68, 0.069531469334083
0.69, 0.070129471167286
0.7, 0.070714307271161
0.71, 0.07128594914162
0.72, 0.071844368917646
0.73, 0.072389539382646
0.74, 0.07292143396578
0.75, 0.073440026743258
0.76, 0.073945292439599
0.77, 0.074437206428865
0.78, 0.074915744735863
0.79, 0.075380884037311
0.8, 0.075832601662976
0.81, 0.076270875596777
0.82, 0.076695684477862
0.83, 0.077107007601644
0.84, 0.077504824920816
0.85, 0.077889117046322
0.86, 0.078259865248306
0.87, 0.078617051457025
0.88, 0.078960658263725
0.89, 0.079290668921496
0.9, 0.079607067346084
0.91, 0.079909838116677
0.92, 0.080198966476654
0.93, 0.080474438334306
0.94, 0.080736240263525
0.95, 0.080984359504453
0.96, 0.081218783964108
0.97, 0.081439502216973
0.98, 0.081646503505553
0.99, 0.081839777740895
1, 0.082019315503087
*Amplitude, name=A11_2
0, 0
0.01, 0
0.02, 0
0.03, 0
0.04, 0
0.05, 0
0.06, 0
0.07, 0
0.08, 0
0.09, 0
0.1, 0
0.11, 0
0.12, 0
0.13, 0
0.14, 0
0.15, 0
0.16, 0
0.17, 0
0.18, 0
0.19, 0
0.2, 0
0.21, 0
0.22, 0
0.23, 0
0.24, 0
0.25, 0
0.26, 0
0.27, 0
0.28, 0
0.29, 0
0.3, 0
0.31, 0
0.32, 0
0.33, 0
0.34, 0
0.35, 0
0.36, 0
0.37, 0
0.38, 0
0.39, 0
0.4, 0
0.41, 0
0.42, 0
0.43, 0
0.44, 0
0.45, 0
0.46, 0
0.47, 0
0.48, 0
0.49, 0
0.5, 0
0.51, 0
0.52, 0
0.53, 0
0.54, 0
0.55, 0
0.56, 0
0.57, 0
0.58, 0
0.59, 0
0.6, 0
0.61, 0
0.62, 0
0.63, 0
0.64, 0
0.65, 0
0.66, 0
0.67, 0
0.68, 0
0.69, 0
0.7, 0
0.71, 0
0.72, 0
0.73, 0
0.74, 0
0.75, 0
0.76, 0
0.77, 0
0.78, 0
0.79, 0
0.8, 0
0.81, 0
0.82, 0
0.83, 0
0.84, 0
0.85, 0
0.86, 0
0.87, 0
0.88, 0
0.89, 0
0.9, 0
0.91, 0
0.92, 0
0.93, 0
0.94, 0
0.95, 0
0.96, 0
0.97, 0
0.98, 0
0.99, 0
1, 0
*Amplitude, name=A12_0
0, 4.316038802031e-05
0.01, -0.0013537791243478
0.02, -0.0027506526554313
0.03, -0.0041473921235849
0.04, -0.0055439294536975
0.05, -0.0069401965805099
0.06, -0.0083361254519321
0.07, -0.0097316480323603
0.08, -0.011126696305993
0.09, -0.012521202280145
0.1, -0.013915097988562
0.11, -0.015308315494735
0.12, -0.016700786895207
0.13, -0.018092444322888
0.14, -0.019483219950357
0.15, -0.020873045993172
0.16, -0.022261854713173
0.17, -0.023649578421782
0.18, -0.025036149483303
0.19, -0.026421500318219
0.2, -0.027805563406485
0.21, -0.029188271290818
0.22, -0.030569556579987
0.23, -0.031949351952096
0.24, -0.033327590157864
0.25, -0.034704204023906
0.26, -0.036079126456004
0.27, -0.037452290442379
0.28, -0.038823629056955
0.29, -0.040193075462623
0.3, -0.041560562914497
0.31, -0.042926024763167
0.32, -0.044289394457951
0.33, -0.045650605550131
0.34, -0.0470095916962
0.35, -0.04836628666109
0.36, -0.049720624321404
0.37, -0.051072538668633
0.38, -0.05242196381238
0.39, -0.053768833983567
0.4, -0.055113083537643
0.41, -0.056454646957779
0.42, -0.057793458858069
0.43, -0.059129453986708
0.44, -0.06046256722918
0.45, -0.061792733611424
0.46, -0.063119888303009
0.47, -0.064443966620287
0.48, -0.065764904029548
0.49, -0.067082636150168
0.5, -0.068397098757741
0.51, -0.069708227787214
0.52, -0.071015959336009
0.53, -0.072320229667135
0.54, -0.073620975212295
0.55, -0.074918132574987
0.56, -0.076211638533591
0.57, -0.077501430044451
0.58, -0.078787444244949
0.59, -0.080069618456567
0.6, -0.081347890187944
0.61, -0.082622197137917
0.62, -0.083892477198564
0.63, -0.085158668458227
0.64, -0.08642070920453
0.65, -0.087678537927388
0.66, -0.088932093322004
0.67, -0.090181314291855
0.68, -0.091426139951675
0.69, -0.092666509630417
0.7, -0.093902362874212
0.71, -0.095133639449317
0.72, -0.096360279345049
0.73, -0.09758222277671
0.74, -0.0987994101885
0.75, -0.10001178225642
0.76, -0.10121927989118
0.77, -0.10242184424102
0.78, -0.10361941669468
0.79, -0.10481193888415
0.8, -0.10599935268759
0.81, -0.10718160023212
0.82, -0.10835862389667
0.83, -0.10953036631476
0.84, -0.11069677037731
0.85, -0.11185777923545
0.86, -0.11301333630324
0.87, -0.11416338526046
0.88, -0.11530787005534
0.89, -0.1164467349073
0.9, -0.11757992430969
0.91, -0.11870738303245
0.92, -0.11982905612483
0.93, -0.12094488891807
0.94, -0.12205482702805
0.95, -0.12315881635796
0.96, -0.1242568031009
0.97, -0.12534873374257
0.98, -0.12643455506379
0.99, -0.12751421414317
1, -0.12858765835965
*Amplitude, name=A12_1
0, 9.8320497772475e-05
0.01, 9.3745556753566e-05
0.02, 7.9418328866465e-05
0.03, 5.5339512399888e-05
0.04, 2.1510280921522e-05
0.05, -2.2067716779683e-05
0.06, -7.5392356773607e-05
0.07, -0.0001384610400925
0.08, -0.00021127069285771
0.09, -0.00029381776642949
0.1, -0.00038609823757996
0.11, -0.00048810760868909
0.12, -0.00059984090796408
0.13, -0.00072129268968155
0.14, -0.000852457034453
0.15, -0.00099332754951331
0.16, -0.0011438973690323
0.17, -0.0013041591544494
0.18, -0.0014741050948313
0.19, -0.0016537269072527
0.2, -0.0018430158371996
0.21, -0.0020419626589969
0.22, -0.0022505576762571
0.23, -0.0024687907223532
0.24, -0.0026966511609146
0.25, -0.0029341278863449
0.26, -0.0031812093243635
0.27, -0.0034378834325698
0.28, -0.0037041377010298
0.29, -0.003979959152886
0.3, -0.0042653343449901
0.31, -0.0045602493685578
0.32, -0.0048646898498469
0.33, -0.0051786409508579
0.34, -0.005502087370057
0.35, -0.0058350133431221
0.36, -0.0061774026437108
0.37, -0.0065292385842518
0.38, -0.0068905040167577
0.39, -0.0072611813336609
0.4, -0.007641252468672
0.41, -0.0080306988976601
0.42, -0.0084295016395556
0.43, -0.0088376412572755
0.44, -0.0092550978586707
0.45, -0.0096818510974953
0.46, -0.010117880174399
0.47, -0.010563163837938
0.48, -0.011017680385617
0.49, -0.01148140766494
0.5, -0.011954323074493
0.51, -0.012436403565046
0.52, -0.012927625640677
0.53, -0.013427965359915
0.54, -0.013937398336906
0.55, -0.014455899742608
0.56, -0.014983444305993
0.57, -0.015520006315282
0.58, -0.016065559619202
0.59, -0.016620077628253
0.6, -0.017183533316009
0.61, -0.017755899220437
0.62, -0.018337147445228
0.63, -0.018927249661165
0.64, -0.019526177107497
0.65, -0.020133900593347
0.66, -0.020750390499129
0.67, -0.021375616777994
0.68, -0.022009548957296
0.69, -0.022652156140075
0.7, -0.023303407006563
0.71, -0.023963269815712
0.72, -0.02463171240674
0.73, -0.025308702200696
0.74, -0.025994206202055
0.75, -0.026688191000318
0.76, -0.027390622771646
0.77, -0.028101467280503
0.78, -0.028820689881333
0.79, -0.02954825552024
0.8, -0.030284128736702
0.81, -0.031028273665295
0.82, -0.031780654037447
0.83, -0.032541233183199
0.84, -0.033309974032996
0.85, -0.034086839119494
0.86, -0.034871790579385
0.87, -0.035664790155242
0.88, -0.036465799197384
0.89, -0.037274778665762
0.9, -0.038091689131856
0.91, -0.038916490780603
0.92, -0.039749143412334
0.93, -0.040589606444736
0.94, -0.041437838914825
0.95, -0.042293799480947
0.96, -0.043157446424792
0.97, -0.044028737653427
0.98, -0.044907630701345
0.99, -0.045794082732541
1, -0.046688050542592
*Amplitude, name=A12_2
0, 0
0.01, 0
0.02, 0
0.03, 0
0.04, 0
0.05, 0
0.06, 0
0.07, 0
0.08, 0
0.09, 0
0.1, 0
0.11, 0
0.12, 0
0.13, 0
0.14, 0
0.15, 0
0.16, 0
0.17, 0
0.18, 0
0.19, 0
0.2, 0
0.21, 0
0.22, 0
0.23, 0
0.24, 0
0.25, 0
0.26, 0
0.27, 0
0.28, 0
0.29, 0
0.3, 0
0.31, 0
0.32, 0
0.33, 0
0.34, 0
0.35, 0
0.36, 0
0.37, 0
0.38, 0
0.39, 0
0.4, 0
0.41, 0
0.42, 0
0.43, 0
0.44, 0
0.45, 0
0.46, 0
0.47, 0
0.48, 0
0.49, 0
0.5, 0
0.51, 0
0.52, 0
0.53, 0
0.54, 0
0.55, 0
0.56, 0
0.57, 0
0.58, 0
0.59, 0
0.6, 0
0.61, 0
0.62, 0
0.63, 0
0.64, 0
0.65, 0
0.66, 0
0.67, 0
0.68, 0
0.69, 0
0.7, 0
0.71, 0
0.72, 0
0.73, 0
0.74, 0
0.75, 0
0.76, 0
0.77, 0
0.78, 0
0.79, 0
0.8, 0
0.81, 0
0.82, 0
0.83, 0
0.84, 0
0.85, 0
0.86, 0
0.87, 0
0.88, 0
0.89, 0
0.9, 0
0.91, 0
0.92, 0
0.93, 0
0.94, 0
0.95, 0
0.96, 0
0.97, 0
0.98, 0
0.99, 0
1, 0
*Amplitude, name=A13_0
0, 0
0.01, 0
0.02, 0
0.03, 0
0.04, 0
0.05, 0
0.06, 0
0.07, 0
0.08, 0
0.09, 0
0.1, 0
0.11, 0
0.12, 0
0.13, 0
0.14, 0
0.15, 0
0.16, 0
0.17, 0
0.18, 0
0.19, 0
0.2, 0
0.21, 0
0.22, 0
0.23, 0
0.24, 0
0.25, 0
0.26, 0
0.27, 0
0.28, 0
0.29, 0
0.3, 0
0.31, 0
0.32, 0
0.33, 0
0.34, 0
0.35, 0
0.36, 0
0.37, 0
0.38, 0
0.39, 0
0.4, 0
0.41, 0
0.42, 0
0.43, 0
0.44, 0
0.45, 0
0.46, 0
0.47, 0
0.48, 0
0.49, 0
0.5, 0
0.51, 0
0.52, 0
0.53, 0
0.54, 0
0.55, 0
0.56, 0
0.57, 0
0.58, 0
0.59, 0
0.6, 0
0.61, 0
0.62, 0
0.63, 0
0.64, 0
0.65, 0
0.66, 0
0.67, 0
0.68, 0
0.69, 0
0.7, 0
0.71, 0
0.72, 0
0.73, 0
0.74, 0
0.75, 0
0.76, 0
0.77, 0
0.78, 0
0.79, 0
0.8, 0
0.81, 0
0.82, 0
0.83, 0
0.84, 0
0.85, 0
0.86, 0
0.87, 0
0.88, 0
0.89, 0
0.9, 0
0.91, 0
0.92, 0
0.93, 0
0.94, 0
0.95, 0
0.96, 0
0.97, 0
0.98, 0
0.99, 0
1, 0
*Amplitude, name=A13_1
0, 0
0.01, 0
0.02, 0
0.03, 0
0.04, 0
0.05, 0
0.06, 0
0.07, 0
0.08, 0
0.09, 0
0.1, 0
0.11, 0
0.12, 0
0.13, 0
0.14, 0
0.15, 0
0.16, 0
0.17, 0
0.18, 0
0.19, 0
0.2, 0
0.21, 0
0.22, 0
0.23, 0
0.24, 0
0.25, 0
0.26, 0
0.27, 0
0.28, 0
0.29, 0
0.3, 0
0.31, 0
0.32, 0
0.33, 0
0.34, 0
0.35, 0
0.36, 0
0.37, 0
0.38, 0
0.39, 0
0.4, 0
0.41, 0
0.42, 0
0.43, 0
0.44, 0
0.45, 0
0.46, 0
0.47, 0
0.48, 0
0.49, 0
0.5, 0
0.51, 0
0.52, 0
0.53, 0
0.54, 0
0.55, 0
0.56, 0
0.57, 0
0.58, 0
0.59, 0
0.6, 0
0.61, 0
0.62, 0
0.63, 0
0.64, 0
0.65, 0
0.66, 0
0.67, 0
0.68, 0
0.69, 0
0.7, 0
0.71, 0
0.72, 0
0.73, 0
0.74, 0
0.75, 0
0.76, 0
0.77, 0
0.78, 0
0.79, 0
0.8, 0
0.81, 0
0.82, 0
0.83, 0
0.84, 0
0.85, 0
0.86, 0
0.87, 0
0.88, 0
0.89, 0
0.9, 0
0.91, 0
0.92, 0
0.93, 0
0.94, 0
0.95, 0
0.96, 0
0.97, 0
0.98, 0
0.99, 0
1, 0
*Amplitude, name=A13_2
0, -1.9999999999998e-05
0.01, -1.9999999999998e-05
0.02, -1.9999999999998e-05
0.03, -1.9999999999998e-05
0.04, -1.9999999999998e-05
0.05, -1.9999999999998e-05
0.06, -1.9999999999998e-05
0.07, -1.9999999999998e-05
0.08, -1.9999999999998e-05
0.09, -1.9999999999998e-05
0.1, -1.9999999999998e-05
0.11, -1.9999999999998e-05
0.12, -1.9999999999998e-05
0.13, -1.9999999999998e-05
0.14, -1.9999999999998e-05
0.15, -1.9999999999998e-05
0.16, -1.9999999999998e-05
0.17, -1.9999999999998e-05
0.18, -1.9999999999998e-05
0.19, -1.9999999999998e-05
0.2, -1.9999999999998e-05
0.21, -1.9999999999998e-05
0.22, -1.9999999999998e-05
0.23, -1.9999999999998e-05
0.24, -1.9999999999998e-05
0.25, -1.9999999999998e-05
0.26, -1.9999999999998e-05
0.27, -1.9999999999998e-05
0.28, -1.9999999999998e-05
0.29, -1.9999999999998e-05
0.3, -1.9999999999998e-05
0.31, -1.9999999999998e-05
0.32, -1.9999999999998e-05
0.33, -1.9999999999998e-05
0.34, -1.9999999999998e-05
0.35, -1.9999999999998e-05
0.36, -1.9999999999998e-05
0.37, -1.9999999999998e-05
0.38, -1.9999999999998e-05
0.39, -1.9999999999998e-05
0.4, -1.9999999999998e-05
0.41, -1.9999999999998e-05
0.42, -1.9999999999998e-05
0.43, -1.9999999999998e-05
0.44, -1.9999999999998e-05
0.45, -1.9999999999998e-05
0.46, -1.9999999999998e-05
0.47, -1.9999999999998e-05
0.48, -1.9999999999998e-05
0.49, -1.9999999999998e-05
0.5, -1.9999999999998e-05
0.51, -1.9999999999998e-05
0.52, -1.9999999999998e-05
0.53, -1.9999999999998e-05
0.54, -1.9999999999998e-05
0.55, -1.9999999999998e-05
0.56, -1.9999999999998e-05
0.57, -1.9999999999998e-05
0.58, -1.9999999999998e-05
0.59, -1.9999999999998e-05
0.6, -1.9999999999998e-05
0.61, -1.9999999999998e-05
0.62, -1.9999999999998e-05
0.63, -1.9999999999998e-05
0.64, -1.9999999999998e-05
0.65, -1.9999999999998e-05
0.66, -1.9999999999998e-05
0.67, -1.9999999999998e-05
0.68, -1.9999999999998e-05
0.69, -1.9999999999998e-05
0.7, -1.9999999999998e-05
0.71, -1.9999999999998e-05
0.72, -1.9999999999998e-05
0.73, -1.9999999999998e-05
0.74, -1.9999999999998e-05
0.75, -1.9999999999998e-05
0.76, -1.9999999999998e-05
0.77, -1.9999999999998e-05
0.78, -1.9999999999998e-05
0.79, -1.9999999999998e-05
0.8, -1.9999999999998e-05
0.81, -1.9999999999998e-05
0.82, -1.9999999999998e-05
0.83, -1.9999999999998e-05
0.84, -1.9999999999998e-05
0.85, -1.9999999999998e-05
0.86, -1.9999999999998e-05
0.87, -1.9999999999998e-05
0.88, -1.9999999999998e-05
0.89, -1.9999999999998e-05
0.9, -1.9999999999998e-05
0.91, -1.9999999999998e-05
0.92, -1.9999999999998e-05
0.93, -1.9999999999998e-05
0.94, -1.9999999999998e-05
0.95, -1.9999999999998e-05
0.96, -1.9999999999998e-05
0.97, -1.9999999999998e-05
0.98, -1.9999999999998e-05
0.99, -1.9999999999998e-05
1, -1.9999999999998e-05
*Amplitude, name=A14_0
0, 0.00018167950222754
0.01, 0.00017649990200184
0.02, 0.00016156398157787
0.03, 0.00013687246891125
0.04, 0.00010242656743151
0.05, 5.8227955983359e-05
0.06, 4.2787887446494e-06
0.07, -5.9418304878256e-05
0.08, -0.00013286022037891
0.09, -0.00021604337830194
0.1, -0.0003089637244176
0.11, -0.00041161672991927
0.12, -0.0005239973916443
0.13, -0.00064610023231781
0.14, -0.00077791930081961
0.15, -0.00091944817247425
0.16, -0.0010706799493642
0.17, -0.0012316072606659
0.18, -0.0014022222630095
0.19, -0.0015825166408602
0.2, -0.0017724816069246
0.21, -0.0019721079025781
0.22, -0.0021813857983167
0.23, -0.0024003050942311
0.24, -0.0026288551205036
0.25, -0.0028670247379284
0.26, -0.0031148023384543
0.27, -0.0033721758457507
0.28, -0.0036391327157958
0.29, -0.0039156599374885
0.3, -0.0042017440332821
0.31, -0.0044973710598414
0.32, -0.0048025266087222
0.33, -0.0051171958070735
0.34, -0.0054413633183625
0.35, -0.0057750133431221
0.36, -0.0061181296197207
0.37, -0.0064706954251552
0.38, -0.0068326935758655
0.39, -0.0072041064285725
0.4, -0.0075849158811377
0.41, -0.0079751033734457
0.42, -0.0083746498883085
0.43, -0.0087835359523928
0.44, -0.0092017416371685
0.45, -0.0096292465598806
0.46, -0.010066029884542
0.47, -0.010512070322951
0.48, -0.010967346135724
0.49, -0.011431835133361
0.5, -0.011905514677324
0.51, -0.012388361681139
0.52, -0.012880352611526
0.53, -0.01338146348954
0.54, -0.013891669891744
0.55, -0.014410946951398
0.56, -0.014939269359671
0.57, -0.015476611366873
0.58, -0.016022946783713
0.59, -0.016578248982574
0.6, -0.01714249089881
0.61, -0.017715645032067
0.62, -0.018297683447619
0.63, -0.018888577777737
0.64, -0.019488299223064
0.65, -0.020096818554022
0.66, -0.020714106112239
0.67, -0.021340131811989
0.68, -0.021974865141663
0.69, -0.022618275165254
0.7, -0.023270330523865
0.71, -0.023930999437238
0.72, -0.024600249705303
0.73, -0.025278048709744
0.74, -0.025964363415596
0.75, -0.026659160372846
0.76, -0.027362405718073
0.77, -0.02807406517609
0.78, -0.028794104061619
0.79, -0.02952248728098
0.8, -0.030259179333804
0.81, -0.031004144314758
0.82, -0.031757345915301
0.83, -0.032518747425448
0.84, -0.033288311735566
0.85, -0.034066001338174
0.86, -0.034851778329779
0.87, -0.035645604412719
0.88, -0.03644744089703
0.89, -0.037257248702334
0.9, -0.03807498835974
0.91, -0.038900620013772
0.92, -0.039734103424307
0.93, -0.040575397968539
0.94, -0.04142446264296
0.95, -0.042281256065355
0.96, -0.043145736476821
0.97, -0.044017861743803
0.98, -0.044897589360146
0.99, -0.045784876449166
1, -0.046679679765743
*Amplitude, name=A14_1
0, 4.3160388020319e-05
0.01, 0.0014406797477203
0.02, 0.0028381288907218
0.03, 0.0042354397073252
0.04, 0.0056325440945726
0.05, 0.0070293739595672
0.06, 0.0084258612227919
0.07, 0.0098219378214278
0.08, 0.011217535712671
0.09, 0.012612586877049
0.1, 0.014007023321736
0.11, 0.015400777083868
0.12, 0.016793780233852
0.13, 0.01818596487868
0.14, 0.019577263165236
0.15, 0.020967607283605
0.16, 0.022356929470375
0.17, 0.023745162011945
0.18, 0.025132237247817
0.19, 0.026518087573902
0.2, 0.02790264544581
0.21, 0.029285843382144
0.22, 0.030667613967787
0.23, 0.032047889857192
0.24, 0.033426603777657
0.25, 0.034803688532613
0.26, 0.03617907700489
0.27, 0.037552702159994
0.28, 0.038924497049375
0.29, 0.040294394813683
0.3, 0.041662328686036
0.31, 0.043028231995265
0.32, 0.04439203816917
0.33, 0.045753680737762
0.34, 0.047113093336505
0.35, 0.048470209709545
0.36, 0.049824963712944
0.37, 0.051177289317905
0.38, 0.052527120613985
0.39, 0.053874391812311
0.4, 0.055219037248786
0.41, 0.056560991387287
0.42, 0.057900188822864
0.43, 0.059236564284923
0.44, 0.060570052640408
0.45, 0.06190058889698
0.46, 0.063228108206177
0.47, 0.064552545866582
0.48, 0.065873837326972
0.49, 0.067191918189464
0.5, 0.068506724212658
0.51, 0.069818191314762
0.52, 0.07112625557672
0.53, 0.072430853245325
0.54, 0.073731920736328
0.55, 0.075029394637535
0.56, 0.076323211711897
0.57, 0.077613308900597
0.58, 0.078899623326117
0.59, 0.080182092295306
0.6, 0.081460653302438
0.61, 0.082735244032251
0.62, 0.084005802362992
0.63, 0.085272266369441
0.64, 0.086534574325927
0.65, 0.087792664709344
0.66, 0.089046476202139
0.67, 0.09029594769531
0.68, 0.091541018291379
0.69, 0.092781627307362
0.7, 0.094017714277724
0.71, 0.095249218957333
0.72, 0.096476081324386
0.73, 0.097698241583342
0.74, 0.098915640167836
0.75, 0.10012821774358
0.76, 0.10133591521124
0.77, 0.10253867370937
0.78, 0.1037364346172
0.79, 0.10492913955755
0.8, 0.10611673039968
0.81, 0.10729914926207
0.82, 0.10847633851531
0.83, 0.10964824078484
0.84, 0.11081479895381
0.85, 0.11197595616582
0.86, 0.11313165582769
0.87, 0.11428184161227
0.88, 0.11542645746111
0.89, 0.11656544758726
0.9, 0.11769875647794
0.91, 0.11882632889728
0.92, 0.11994810988899
0.93, 0.12106404477904
0.94, 0.12217407917835
0.95, 0.1232781589854
0.96, 0.1243762303889
0.97, 0.1254682398704
0.98, 0.1265541342069
0.99, 0.12763386047344
1, 0.12870736604568
*Amplitude, name=A14_2
0, -1.9999999999998e-05
0.01, -1.9999999999998e-05
0.02, -1.9999999999998e-05
0.03, -1.9999999999998e-05
0.04, -1.9999999999998e-05
0.05, -1.9999999999998e-05
0.06, -1.9999999999998e-05
0.07, -1.9999999999998e-05
0.08, -1.9999999999998e-05
0.09, -1.9999999999998e-05
0.1, -1.9999999999998e-05
0.11, -1.9999999999998e-05
0.12, -1.9999999999998e-05
0.13, -1.9999999999998e-05
0.14, -1.9999999999998e-05
0.15, -1.9999999999998e-05
0.16, -1.9999999999998e-05
0.17, -1.9999999999998e-05
0.18, -1.9999999999998e-05
0.19, -1.9999999999998e-05
0.2, -1.9999999999998e-05
0.21, -1.9999999999998e-05
0.22, -1.9999999999998e-05
0.23, -1.9999999999998e-05
0.24, -1.9999999999998e-05
0.25, -1.9999999999998e-05
0.26, -1.9999999999998e-05
0.27, -1.9999999999998e-05
0.28, -1.9999999999998e-05
0.29, -1.9999999999998e-05
0.3, -1.9999999999998e-05
0.31, -1.9999999999998e-05
0.32, -1.9999999999998e-05
0.33, -1.9999999999998e-05
0.34, -1.9999999999998e-05
0.35, -1.9999999999998e-05
0.36, -1.9999999999998e-05
0.37, -1.9999999999998e-05
0.38, -1.9999999999998e-05
0.39, -1.9999999999998e-05
0.4, -1.9999999999998e-05
0.41, -1.9999999999998e-05
0.42, -1.9999999999998e-05
0.43, -1.9999999999998e-05
0.44, -1.9999999999998e-05
0.45, -1.9999999999998e-05
0.46, -1.9999999999998e-05
0.47, -1.9999999999998e-05
0.48, -1.9999999999998e-05
0.49, -1.9999999999998e-05
0.5, -1.9999999999998e-05
0.51, -1.9999999999998e-05
0.52, -1.9999999999998e-05
0.53, -1.9999999999998e-05
0.54, -1.9999999999998e-05
0.55, -1.9999999999998e-05
0.56, -1.9999999999998e-05
0.57, -1.9999999999998e-05
0.58, -1.9999999999998e-05
0.59, -1.9999999999998e-05
0.6, -1.9999999999998e-05
0.61, -1.9999999999998e-05
0.62, -1.9999999999998e-05
0.63, -1.9999999999998e-05
0.64, -1.9999999999998e-05
0.65, -1.9999999999998e-05
0.66, -1.9999999999998e-05
0.67, -1.9999999999998e-05
0.68, -1.9999999999998e-05
0.69, -1.9999999999998e-05
0.7, -1.9999999999998e-05
0.71, -1.9999999999998e-05
0.72, -1.9999999999998e-05
0.73, -1.9999999999998e-05
0.74, -1.9999999999998e-05
0.75, -1.9999999999998e-05
0.76, -1.9999999999998e-05
0.77, -1.9999999999998e-05
0.78, -1.9999999999998e-05
0.79, -1.9999999999998e-05
0.8, -1.9999999999998e-05
0.81, -1.9999999999998e-05
0.82, -1.9999999999998e-05
0.83, -1.9999999999998e-05
0.84, -1.9999999999998e-05
0.85, -1.9999999999998e-05
0.86, -1.9999999999998e-05
0.87, -1.9999999999998e-05
0.88, -1.9999999999998e-05
0.89, -1.9999999999998e-05
0.9, -1.9999999999998e-05
0.91, -1.9999999999998e-05
0.92, -1.9999999999998e-05
0.93, -1.9999999999998e-05
0.94, -1.9999999999998e-05
0.95, -1.9999999999998e-05
0.96, -1.9999999999998e-05
0.97, -1.9999999999998e-05
0.98, -1.9999999999998e-05
0.99, -1.9999999999998e-05
1, -1.9999999999998e-05
*Amplitude, name=A15_0
0, 0.00022483989024785
0.01, -0.0011772792223459
0.02, -0.0025890886738534
0.03, -0.0040105196546736
0.04, -0.005441502886266
0.05, -0.0068819686245266
0.06, -0.0083318466631875
0.07, -0.0097910663372386
0.08, -0.011259556526372
0.09, -0.012737245658447
0.1, -0.01422406171298
0.11, -0.015719932224654
0.12, -0.017224784286852
0.13, -0.018738544555206
0.14, -0.020261139251176
0.15, -0.021792494165646
0.16, -0.023332534662537
0.17, -0.024881185682448
0.18, -0.026438371746312
0.19, -0.028004016959079
0.2, -0.02957804501341
0.21, -0.031160379193396
0.22, -0.032750942378304
0.23, -0.034349657046327
0.24, -0.035956445278368
0.25, -0.037571228761835
0.26, -0.039193928794459
0.27, -0.04082446628813
0.28, -0.042462761772751
0.29, -0.044108735400112
0.3, -0.045762306947779
0.31, -0.047423395823009
0.32, -0.049091921066673
0.33, -0.050767801357204
0.34, -0.052450955014562
0.35, -0.054141300004213
0.36, -0.055838753941124
0.37, -0.057543234093788
0.38, -0.059254657388246
0.39, -0.06097294041214
0.4, -0.06269799941878
0.41, -0.064429750331225
0.42, -0.066168108746378
0.43, -0.067912989939101
0.44, -0.069664308866348
0.45, -0.071421980171305
0.46, -0.073185918187551
0.47, -0.074956036943237
0.48, -0.076732250165272
0.49, -0.078514471283529
0.5, -0.080302613435065
0.51, -0.082096589468354
0.52, -0.083896311947535
0.53, -0.085701693156675
0.54, -0.087512645104039
0.55, -0.089329079526385
0.56, -0.091150907893261
0.57, -0.092978041411324
0.58, -0.094810391028662
0.59, -0.096647867439142
0.6, -0.098490381086754
0.61, -0.10033784216998
0.62, -0.10219016064618
0.63, -0.10404724623596
0.64, -0.10590900842759
0.65, -0.10777535648141
0.66, -0.10964619943424
0.67, -0.11152144610384
0.68, -0.11340100509334
0.69, -0.11528478479567
0.7, -0.11717269339808
0.71, -0.11906463888656
0.72, -0.12096052905035
0.73, -0.12286027148645
0.74, -0.1247637736041
0.75, -0.12667094262927
0.76, -0.12858168560925
0.77, -0.13049590941711
0.78, -0.1324135207563
0.79, -0.13433442616513
0.8, -0.13625853202139
0.81, -0.13818574454688
0.82, -0.14011596981197
0.83, -0.1420491137402
0.84, -0.14398508211288
0.85, -0.14592378057363
0.86, -0.14786511463302
0.87, -0.14980898967318
0.88, -0.15175531095237
0.89, -0.15370398360964
0.9, -0.15565491266943
0.91, -0.15760800304622
0.92, -0.15956315954914
0.93, -0.16152028688661
0.94, -0.16347928967101
0.95, -0.16544007242331
0.96, -0.16740253957772
0.97, -0.16936659548637
0.98, -0.17133214442393
0.99, -0.17329909059234
1, -0.17526733812539
*Amplitude, name=A15_1
0, 0.00014148088579279
0.01, 0.0015344253044738
0.02, 0.0029175472195883
0.03, 0.0042907792197251
0.04, 0.0056540543754942
0.05, 0.0070073062427875
0.06, 0.0083504688660183
0.07, 0.0096834767813353
0.08, 0.011006265019813
0.09, 0.012318769110619
0.1, 0.013620925084156
0.11, 0.014912669475179
0.12, 0.016193939325888
0.13, 0.017464672188998
0.14, 0.018724806130783
0.15, 0.019974279734091
0.16, 0.021213032101343
0.17, 0.022441002857495
0.18, 0.023658132152985
0.19, 0.024864360666649
0.2, 0.02605962960861
0.21, 0.027243880723147
0.22, 0.02841705629153
0.23, 0.029579099134839
0.24, 0.030729952616743
0.25, 0.031869560646268
0.26, 0.032997867680526
0.27, 0.034114818727425
0.28, 0.035220359348345
0.29, 0.036314435660797
0.3, 0.037396994341046
0.31, 0.038467982626707
0.32, 0.039527348319323
0.33, 0.040575039786905
0.34, 0.041611005966448
0.35, 0.042635196366423
0.36, 0.043647561069234
0.37, 0.044648050733654
0.38, 0.045636616597228
0.39, 0.04661321047865
0.4, 0.047577784780114
0.41, 0.048530292489627
0.42, 0.049470687183308
0.43, 0.050398923027647
0.44, 0.051314954781738
0.45, 0.052218737799485
0.46, 0.053110228031779
0.47, 0.053989382028644
0.48, 0.054856156941355
0.49, 0.055710510524525
0.5, 0.056552401138165
0.51, 0.057381787749716
0.52, 0.058198629936043
0.53, 0.059002887885411
0.54, 0.059794522399422
0.55, 0.060573494894927
0.56, 0.061339767405904
0.57, 0.062093302585314
0.58, 0.062834063706915
0.59, 0.063562014667054
0.6, 0.064277119986428
0.61, 0.064979344811814
0.62, 0.065668654917764
0.63, 0.066345016708276
0.64, 0.06700839721843
0.65, 0.067658764115996
0.66, 0.06829608570301
0.67, 0.068920330917316
0.68, 0.069531469334083
0.69, 0.070129471167286
0.7, 0.070714307271161
0.71, 0.07128594914162
0.72, 0.071844368917646
0.73, 0.072389539382646
0.74, 0.07292143396578
0.75, 0.073440026743258
0.76, 0.073945292439599
0.77, 0.074437206428865
0.78, 0.074915744735863
0.79, 0.075380884037311
0.8, 0.075832601662976
0.81, 0.076270875596777
0.82, 0.076695684477862
0.83, 0.077107007601644
0.84, 0.077504824920816
0.85, 0.077889117046322
0.86, 0.078259865248306
0.87, 0.078617051457025
0.88, 0.078960658263725
0.89, 0.079290668921496
0.9, 0.079607067346084
0.91, 0.079909838116677
0.92, 0.080198966476654
0.93, 0.080474438334306
0.94, 0.080736240263525
0.95, 0.080984359504453
0.96, 0.081218783964108
0.97, 0.081439502216973
0.98, 0.081646503505553
0.99, 0.081839777740895
1, 0.082019315503087
*Amplitude, name=A15_2
0, -1.9999999999998e-05
0.01, -1.9999999999998e-05
0.02, -1.9999999999998e-05
0.03, -1.9999999999998e-05
0.04, -1.9999999999998e-05
0.05, -1.9999999999998e-05
0.06, -1.9999999999998e-05
0.07, -1.9999999999998e-05
0.08, -1.9999999999998e-05
0.09, -1.9999999999998e-05
0.1, -1.9999999999998e-05
0.11, -1.9999999999998e-05
0.12, -1.9999999999998e-05
0.13, -1.9999999999998e-05
0.14, -1.9999999999998e-05
0.15, -1.9999999999998e-05
0.16, -1.9999999999998e-05
0.17, -1.9999999999998e-05
0.18, -1.9999999999998e-05
0.19, -1.9999999999998e-05
0.2, -1.9999999999998e-05
0.21, -1.9999999999998e-05
0.22, -1.9999999999998e-05
0.23, -1.9999999999998e-05
0.24, -1.9999999999998e-05
0.25, -1.9999999999998e-05
0.26, -1.9999999999998e-05
0.27, -1.9999999999998e-05
0.28, -1.9999999999998e-05
0.29, -1.9999999999998e-05
0.3, -1.9999999999998e-05
0.31, -1.9999999999998e-05
0.32, -1.9999999999998e-05
0.33, -1.9999999999998e-05
0.34, -1.9999999999998e-05
0.35, -1.9999999999998e-05
0.36, -1.9999999999998e-05
0.37, -1.9999999999998e-05
0.38, -1.9999999999998e-05
0.39, -1.9999999999998e-05
0.4, -1.9999999999998e-05
0.41, -1.9999999999998e-05
0.42, -1.9999999999998e-05
0.43, -1.9999999999998e-05
0.44, -1.9999999999998e-05
0.45, -1.9999999999998e-05
0.46, -1.9999999999998e-05
0.47, -1.9999999999998e-05
0.48, -1.9999999999998e-05
0.49, -1.9999999999998e-05
0.5, -1.9999999999998e-05
0.51, -1.9999999999998e-05
0.52, -1.9999999999998e-05
0.53, -1.9999999999998e-05
0.54, -1.9999999999998e-05
0.55, -1.9999999999998e-05
0.56, -1.9999999999998e-05
0.57, -1.9999999999998e-05
0.58, -1.9999999999998e-05
0.59, -1.9999999999998e-05
0.6, -1.9999999999998e-05
0.61, -1.9999999999998e-05
0.62, -1.9999999999998e-05
0.63, -1.9999999999998e-05
0.64, -1.9999999999998e-05
0.65, -1.9999999999998e-05
0.66, -1.9999999999998e-05
0.67, -1.9999999999998e-05
0.68, -1.9999999999998e-05
0.69, -1.9999999999998e-05
0.7, -1.9999999999998e-05
0.71, -1.9999999999998e-05
0.72, -1.9999999999998e-05
0.73, -1.9999999999998e-05
0.74, -1.9999999999998e-05
0.75, -1.9999999999998e-05
0.76, -1.9999999999998e-05
0.77, -1.9999999999998e-05
0.78, -1.9999999999998e-05
0.79, -1.9999999999998e-05
0.8, -1.9999999999998e-05
0.81, -1.9999999999998e-05
0.82, -1.9999999999998e-05
0.83, -1.9999999999998e-05
0.84, -1.9999999999998e-05
0.85, -1.9999999999998e-05
0.86, -1.9999999999998e-05
0.87, -1.9999999999998e-05
0.88, -1.9999999999998e-05
0.89, -1.9999999999998e-05
0.9, -1.9999999999998e-05
0.91, -1.9999999999998e-05
0.92, -1.9999999999998e-05
0.93, -1.9999999999998e-05
0.94, -1.9999999999998e-05
0.95, -1.9999999999998e-05
0.96, -1.9999999999998e-05
0.97, -1.9999999999998e-05
0.98, -1.9999999999998e-05
0.99, -1.9999999999998e-05
1, -1.9999999999998e-05
*Amplitude, name=A16_0
0, 4.316038802031e-05
0.01, -0.0013537791243478
0.02, -0.0027506526554313
0.03, -0.0041473921235849
0.04, -0.0055439294536975
0.05, -0.0069401965805099
0.06, -0.0083361254519321
0.07, -0.0097316480323603
0.08, -0.011126696305993
0.09, -0.012521202280145
0.1, -0.013915097988562
0.11, -0.015308315494735
0.12, -0.016700786895207
0.13, -0.018092444322888
0.14, -0.019483219950357
0.15, -0.020873045993172
0.16, -0.022261854713173
0.17, -0.023649578421782
0.18, -0.025036149483303
0.19, -0.026421500318219
0.2, -0.027805563406485
0.21, -0.029188271290818
0.22, -0.030569556579987
0.23, -0.031949351952096
0.24, -0.033327590157864
0.25, -0.034704204023906
0.26, -0.036079126456004
0.27, -0.037452290442379
0.28, -0.038823629056955
0.29, -0.040193075462623
0.3, -0.041560562914497
0.31, -0.042926024763167
0.32, -0.044289394457951
0.33, -0.045650605550131
0.34, -0.0470095916962
0.35, -0.04836628666109
0.36, -0.049720624321404
0.37, -0.051072538668633
0.38, -0.05242196381238
0.39, -0.053768833983567
0.4, -0.055113083537643
0.41, -0.056454646957779
0.42, -0.057793458858069
0.43, -0.059129453986708
0.44, -0.06046256722918
0.45, -0.061792733611424
0.46, -0.063119888303009
0.47, -0.064443966620287
0.48, -0.065764904029548
0.49, -0.067082636150168
0.5, -0.068397098757741
0.51, -0.069708227787214
0.52, -0.071015959336009
0.53, -0.072320229667135
0.54, -0.073620975212295
0.55, -0.074918132574987
0.56, -0.076211638533591
0.57, -0.077501430044451
0.58, -0.078787444244949
0.59, -0.080069618456567
0.6, -0.081347890187944
0.61, -0.082622197137917
0.62, -0.083892477198564
0.63, -0.085158668458227
0.64, -0.08642070920453
0.65, -0.087678537927388
0.66, -0.088932093322004
0.67, -0.090181314291855
0.68, -0.091426139951675
0.69, -0.092666509630417
0.7, -0.093902362874212
0.71, -0.095133639449317
0.72, -0.096360279345049
0.73, -0.09758222277671
0.74, -0.0987994101885
0.75, -0.10001178225642
0.76, -0.10121927989118
0.77, -0.10242184424102
0.78, -0.10361941669468
0.79, -0.10481193888415
0.8, -0.10599935268759
0.81, -0.10718160023212
0.82, -0.10835862389667
0.83, -0.10953036631476
0.84, -0.11069677037731
0.85, -0.11185777923545
0.86, -0.11301333630324
0.87, -0.11416338526046
0.88, -0.11530787005534
0.89, -0.1164467349073
0.9, -0.11757992430969
0.91, -0.11870738303245
0.92, -0.11982905612483
0.93, -0.12094488891807
0.94, -0.12205482702805
0.95, -0.12315881635796
0.96, -0.1242568031009
0.97, -0.12534873374257
0.98, -0.12643455506379
0.99, -0.12751421414317
1, -0.12858765835965
*Amplitude, name=A16_1
0, 9.8320497772475e-05
0.01, 9.3745556753566e-05
0.02, 7.9418328866465e-05
0.03, 5.5339512399888e-05
0.04, 2.1510280921522e-05
0.05, -2.2067716779683e-05
0.06, -7.5392356773607e-05
0.07, -0.0001384610400925
0.08, -0.00021127069285771
0.09, -0.00029381776642949
0.1, -0.00038609823757996
0.11, -0.00048810760868909
0.12, -0.00059984090796408
0.13, -0.00072129268968155
0.14, -0.000852457034453
0.15, -0.00099332754951331
0.16, -0.0011438973690323
0.17, -0.0013041591544494
0.18, -0.0014741050948313
0.19, -0.0016537269072527
0.2, -0.0018430158371996
0.21, -0.0020419626589969
0.22, -0.0022505576762571
0.23, -0.0024687907223532
0.24, -0.0026966511609146
0.25, -0.0029341278863449
0.26, -0.0031812093243635
0.27, -0.0034378834325698
0.28, -0.0037041377010298
0.29, -0.003979959152886
0.3, -0.0042653343449901
0.31, -0.0045602493685578
0.32, -0.0048646898498469
0.33, -0.0051786409508579
0.34, -0.005502087370057
0.35, -0.0058350133431221
0.36, -0.0061774026437108
0.37, -0.0065292385842518
0.38, -0.0068905040167577
0.39, -0.0072611813336609
0.4, -0.007641252468672
0.41, -0.0080306988976601
0.42, -0.0084295016395556
0.43, -0.0088376412572755
0.44, -0.0092550978586707
0.45, -0.0096818510974953
0.46, -0.010117880174399
0.47, -0.010563163837938
0.48, -0.011017680385617
0.49, -0.01148140766494
0.5, -0.011954323074493
0.51, -0.012436403565046
0.52, -0.012927625640677
0.53, -0.013427965359915
0.54, -0.013937398336906
0.55, -0.014455899742608
0.56, -0.014983444305993
0.57, -0.015520006315282
0.58, -0.016065559619202
0.59, -0.016620077628253
0.6, -0.017183533316009
0.61, -0.017755899220437
0.62, -0.018337147445228
0.63, -0.018927249661165
0.64, -0.019526177107497
0.65, -0.020133900593347
0.66, -0.020750390499129
0.67, -0.021375616777994
0.68, -0.022009548957296
0.69, -0.022652156140075
0.7, -0.023303407006563
0.71, -0.023963269815712
0.72, -0.02463171240674
0.73, -0.025308702200696
0.74, -0.025994206202055
0.75, -0.026688191000318
0.76, -0.027390622771646
0.77, -0.028101467280503
0.78, -0.028820689881333
0.79, -0.02954825552024
0.8, -0.030284128736702
0.81, -0.031028273665295
0.82, -0.031780654037447
0.83, -0.032541233183199
0.84, -0.033309974032996
0.85, -0.034086839119494
0.86, -0.034871790579385
0.87, -0.035664790155242
0.88, -0.036465799197384
0.89, -0.037274778665762
0.9, -0.038091689131856
0.91, -0.038916490780603
0.92, -0.039749143412334
0.93, -0.040589606444736
0.94, -0.041437838914825
0.95, -0.042293799480947
0.96, -0.043157446424792
0.97, -0.044028737653427
0.98, -0.044907630701345
0.99, -0.045794082732541
1, -0.046688050542592
*Amplitude, name=A16_2
0, -1.9999999999998e-05
0.01, -1.9999999999998e-05
0.02, -1.9999999999998e-05
0.03, -1.9999999999998e-05
0.04, -1.9999999999998e-05
0.05, -1.9999999999998e-05
0.06, -1.9999999999998e-05
0.07, -1.9999999999998e-05
0.08, -1.9999999999998e-05
0.09, -1.9999999999998e-05
0.1, -1.9999999999998e-05
0.11, -1.9999999999998e-05
0.12, -1.9999999999998e-05
0.13, -1.9999999999998e-05
0.14, -1.9999999999998e-05
0.15, -1.9999999999998e-05
0.16, -1.9999999999998e-05
0.17, -1.9999999999998e-05
0.18, -1.9999999999998e-05
0.19, -1.9999999999998e-05
0.2, -1.9999999999998e-05
0.21, -1.9999999999998e-05
0.22, -1.9999999999998e-05
0.23, -1.9999999999998e-05
0.24, -1.9999999999998e-05
0.25, -1.9999999999998e-05
0.26, -1.9999999999998e-05
0.27, -1.9999999999998e-05
0.28, -1.9999999999998e-05
0.29, -1.9999999999998e-05
0.3, -1.9999999999998e-05
0.31, -1.9999999999998e-05
0.32, -1.9999999999998e-05
0.33, -1.9999999999998e-05
0.34, -1.9999999999998e-05
0.35, -1.9999999999998e-05
0.36, -1.9999999999998e-05
0.37, -1.9999999999998e-05
0.38, -1.9999999999998e-05
0.39, -1.9999999999998e-05
0.4, -1.9999999999998e-05
0.41, -1.9999999999998e-05
0.42, -1.9999999999998e-05
0.43, -1.9999999999998e-05
0.44, -1.9999999999998e-05
0.45, -1.9999999999998e-05
0.46, -1.9999999999998e-05
0.47, -1.9999999999998e-05
0.48, -1.9999999999998e-05
0.49, -1.9999999999998e-05
0.5, -1.9999999999998e-05
0.51, -1.9999999999998e-05
0.52, -1.9999999999998e-05
0.53, -1.9999999999998e-05
0.54, -1.9999999999998e-05
0.55, -1.9999999999998e-05
0.56, -1.9999999999998e-05
0.57, -1.9999999999998e-05
0.58, -1.9999999999998e-05
0.59, -1.9999999999998e-05
0.6, -1.9999999999998e-05
0.61, -1.9999999999998e-05
0.62, -1.9999999999998e-05
0.63, -1.9999999999998e-05
0.64, -1.9999999999998e-05
0.65, -1.9999999999998e-05
0.66, -1.9999999999998e-05
0.67, -1.9999999999998e-05
0.68, -1.9999999999998e-05
0.69, -1.9999999999998e-05
0.7, -1.9999999999998e-05
0.71, -1.9999999999998e-05
0.72, -1.9999999999998e-05
0.73, -1.9999999999998e-05
0.74, -1.9999999999998e-05
0.75, -1.9999999999998e-05
0.76, -1.9999999999998e-05
0.77, -1.9999999999998e-05
0.78, -1.9999999999998e-05
0.79, -1.9999999999998e-05
0.8, -1.9999999999998e-05
0.81, -1.9999999999998e-05
0.82, -1.9999999999998e-05
0.83, -1.9999999999998e-05
0.84, -1.9999999999998e-05
0.85, -1.9999999999998e-05
0.86, -1.9999999999998e-05
0.87, -1.9999999999998e-05
0.88, -1.9999999999998e-05
0.89, -1.9999999999998e-05
0.9, -1.9999999999998e-05
0.91, -1.9999999999998e-05
0.92, -1.9999999999998e-05
0.93, -1.9999999999998e-05
0.94, -1.9999999999998e-05
0.95, -1.9999999999998e-05
0.96, -1.9999999999998e-05
0.97, -1.9999999999998e-05
0.98, -1.9999999999998e-05
0.99, -1.9999999999998e-05
1, -1.9999999999998e-05
*Step, name=LOAD, nlgeom=YES, inc=1000
*Static
0.01, 1., 1e-8, 0.01
*Boundary
1, 1, 1, 0
1, 2, 2, 0
1, 3, 3, 0
2, 1, 1, 0.00018167950222754
2, 2, 2, 4.3160388020319e-05
2, 3, 3, 0
3, 1, 1, 0.00022483989024785
3, 2, 2, 0.00014148088579279
3, 3, 3, 0
4, 1, 1, 4.316038802031e-05
4, 2, 2, 9.8320497772475e-05
4, 3, 3, 0
5, 1, 1, 0
5, 2, 2, 0
5, 3, 3, -1.9999999999998e-05
6, 1, 1, 0.00018167950222754
6, 2, 2, 4.3160388020319e-05
6, 3, 3, -1.9999999999998e-05
7, 1, 1, 0.00022483989024785
7, 2, 2, 0.00014148088579279
7, 3, 3, -1.9999999999998e-05
8, 1, 1, 4.316038802031e-05
8, 2, 2, 9.8320497772475e-05
8, 3, 3, -1.9999999999998e-05
9, 1, 1, 0
9, 2, 2, 0
9, 3, 3, 0
10, 1, 1, 0.00018167950222754
10, 2, 2, 4.3160388020319e-05
10, 3, 3, 0
11, 1, 1, 0.00022483989024785
11, 2, 2, 0.00014148088579279
11, 3, 3, 0
12, 1, 1, 4.316038802031e-05
12, 2, 2, 9.8320497772475e-05
12, 3, 3, 0
13, 1, 1, 0
13, 2, 2, 0
13, 3, 3, -1.9999999999998e-05
14, 1, 1, 0.00018167950222754
14, 2, 2, 4.3160388020319e-05
14, 3, 3, -1.9999999999998e-05
15, 1, 1, 0.00022483989024785
15, 2, 2, 0.00014148088579279
15, 3, 3, -1.9999999999998e-05
16, 1, 1, 4.316038802031e-05
16, 2, 2, 9.8320497772475e-05
16, 3, 3, -1.9999999999998e-05
*Output, field, frequency=100
*Element Output
S, LE, SDV
*End Step
*Step, name=ROTATE, nlgeom=YES, inc=1000
*Static
0.01, 1., 1e-8, 0.01
*Boundary, amplitude=A1_0
1, 1, 1, 1.
*Boundary, amplitude=A1_1
1, 2, 2, 1.
*Boundary, amplitude=A1_2
1, 3, 3, 1.
*Boundary, amplitude=A2_0
2, 1, 1, 1.
*Boundary, amplitude=A2_1
2, 2, 2, 1.
*Boundary, amplitude=A2_2
2, 3, 3, 1.
*Boundary, amplitude=A3_0
3, 1, 1, 1.
*Boundary, amplitude=A3_1
3, 2, 2, 1.
*Boundary, amplitude=A3_2
3, 3, 3, 1.
*Boundary, amplitude=A4_0
4, 1, 1, 1.
*Boundary, amplitude=A4_1
4, 2, 2, 1.
*Boundary, amplitude=A4_2
4, 3, 3, 1.
*Boundary, amplitude=A5_0
5, 1, 1, 1.
*Boundary, amplitude=A5_1
5, 2, 2, 1.
*Boundary, amplitude=A5_2
5, 3, 3, 1.
*Boundary, amplitude=A6_0
6, 1, 1, 1.
*Boundary, amplitude=A6_1
6, 2, 2, 1.
*Boundary, amplitude=A6_2
6, 3, 3, 1.
*Boundary, amplitude=A7_0
7, 1, 1, 1.
*Boundary, amplitude=A7_1
7, 2, 2, 1.
*Boundary, amplitude=A7_2
7, 3, 3, 1.
*Boundary, amplitude=A8_0
8, 1, 1, 1.
*Boundary, amplitude=A8_1
8, 2, 2, 1.
*Boundary, amplitude=A8_2
8, 3, 3, 1.
*Boundary, amplitude=A9_0
9, 1, 1, 1.
*Boundary, amplitude=A9_1
9, 2, 2, 1.
*Boundary, amplitude=A9_2
9, 3, 3, 1.
*Boundary, amplitude=A10_0
10, 1, 1, 1.
*Boundary, amplitude=A10_1
10, 2, 2, 1.
*Boundary, amplitude=A10_2
10, 3, 3, 1.
*Boundary, amplitude=A11_0
11, 1, 1, 1.
*Boundary, amplitude=A11_1
11, 2, 2, 1.
*Boundary, amplitude=A11_2
11, 3, 3, 1.
*Boundary, amplitude=A12_0
12, 1, 1, 1.
*Boundary, amplitude=A12_1
12, 2, 2, 1.
*Boundary, amplitude=A12_2
12, 3, 3, 1.
*Boundary, amplitude=A13_0
13, 1, 1, 1.
*Boundary, amplitude=A13_1
13, 2, 2, 1.
*Boundary, amplitude=A13_2
13, 3, 3, 1.
*Boundary, amplitude=A14_0
14, 1, 1, 1.
*Boundary, amplitude=A14_1
14, 2, 2, 1.
*Boundary, amplitude=A14_2
14, 3, 3, 1.
*Boundary, amplitude=A15_0
15, 1, 1, 1.
*Boundary, amplitude=A15_1
15, 2, 2, 1.
*Boundary, amplitude=A15_2
15, 3, 3, 1.
*Boundary, amplitude=A16_0
16, 1, 1, 1.
*Boundary, amplitude=A16_1
16, 2, 2, 1.
*Boundary, amplitude=A16_2
16, 3, 3, 1.
*Output, field, frequency=100
*Element Output
S, LE, SDV
*End Step
