*Heading
** WCM angle verification; mm N MPa
*Node
1, 2.0, 0.0, 0.0
2, 2.2, 0.0, 0.0
3, 2.2, 0.2, 0.0
4, 2.0, 0.2, 0.0
5, 2.0, 0.0, 0.2
6, 2.2, 0.0, 0.2
7, 2.2, 0.2, 0.2
8, 2.0, 0.2, 0.2
9, 4.0, 0.0, 0.0
10, 4.2, 0.0, 0.0
11, 4.2, 0.2, 0.0
12, 4.0, 0.2, 0.0
13, 4.0, 0.0, 0.2
14, 4.2, 0.0, 0.2
15, 4.2, 0.2, 0.2
16, 4.0, 0.2, 0.2
17, 6.0, 0.0, 0.0
18, 6.2, 0.0, 0.0
19, 6.2, 0.2, 0.0
20, 6.0, 0.2, 0.0
21, 6.0, 0.0, 0.2
22, 6.2, 0.0, 0.2
23, 6.2, 0.2, 0.2
24, 6.0, 0.2, 0.2
25, 8.0, 0.0, 0.0
26, 8.2, 0.0, 0.0
27, 8.2, 0.2, 0.0
28, 8.0, 0.2, 0.0
29, 8.0, 0.0, 0.2
30, 8.2, 0.0, 0.2
31, 8.2, 0.2, 0.2
32, 8.0, 0.2, 0.2
33, 10.0, 0.0, 0.0
34, 10.2, 0.0, 0.0
35, 10.2, 0.2, 0.0
36, 10.0, 0.2, 0.0
37, 10.0, 0.0, 0.2
38, 10.2, 0.0, 0.2
39, 10.2, 0.2, 0.2
40, 10.0, 0.2, 0.2
41, 12.0, 0.0, 0.0
42, 12.2, 0.0, 0.0
43, 12.2, 0.2, 0.0
44, 12.0, 0.2, 0.0
45, 12.0, 0.0, 0.2
46, 12.2, 0.0, 0.2
47, 12.2, 0.2, 0.2
48, 12.0, 0.2, 0.2
49, 14.0, 0.0, 0.0
50, 14.2, 0.0, 0.0
51, 14.2, 0.2, 0.0
52, 14.0, 0.2, 0.0
53, 14.0, 0.0, 0.2
54, 14.2, 0.0, 0.2
55, 14.2, 0.2, 0.2
56, 14.0, 0.2, 0.2
57, 16.0, 0.0, 0.0
58, 16.2, 0.0, 0.0
59, 16.2, 0.2, 0.0
60, 16.0, 0.2, 0.0
61, 16.0, 0.0, 0.2
62, 16.2, 0.0, 0.2
63, 16.2, 0.2, 0.2
64, 16.0, 0.2, 0.2
65, 18.0, 0.0, 0.0
66, 18.2, 0.0, 0.0
67, 18.2, 0.2, 0.0
68, 18.0, 0.2, 0.0
69, 18.0, 0.0, 0.2
70, 18.2, 0.0, 0.2
71, 18.2, 0.2, 0.2
72, 18.0, 0.2, 0.2
73, 20.0, 0.0, 0.0
74, 20.2, 0.0, 0.0
75, 20.2, 0.2, 0.0
76, 20.0, 0.2, 0.0
77, 20.0, 0.0, 0.2
78, 20.2, 0.0, 0.2
79, 20.2, 0.2, 0.2
80, 20.0, 0.2, 0.2
81, 22.0, 0.0, 0.0
82, 22.2, 0.0, 0.0
83, 22.2, 0.2, 0.0
84, 22.0, 0.2, 0.0
85, 22.0, 0.0, 0.2
86, 22.2, 0.0, 0.2
87, 22.2, 0.2, 0.2
88, 22.0, 0.2, 0.2
89, 24.0, 0.0, 0.0
90, 24.2, 0.0, 0.0
91, 24.2, 0.2, 0.0
92, 24.0, 0.2, 0.0
93, 24.0, 0.0, 0.2
94, 24.2, 0.0, 0.2
95, 24.2, 0.2, 0.2
96, 24.0, 0.2, 0.2
97, 26.0, 0.0, 0.0
98, 26.2, 0.0, 0.0
99, 26.2, 0.2, 0.0
100, 26.0, 0.2, 0.0
101, 26.0, 0.0, 0.2
102, 26.2, 0.0, 0.2
103, 26.2, 0.2, 0.2
104, 26.0, 0.2, 0.2
105, 28.0, 0.0, 0.0
106, 28.2, 0.0, 0.0
107, 28.2, 0.2, 0.0
108, 28.0, 0.2, 0.0
109, 28.0, 0.0, 0.2
110, 28.2, 0.0, 0.2
111, 28.2, 0.2, 0.2
112, 28.0, 0.2, 0.2
*Element, type=C3D8, elset=E1
1, 1, 2, 3, 4, 5, 6, 7, 8
*Element, type=C3D8, elset=E2
2, 9, 10, 11, 12, 13, 14, 15, 16
*Element, type=C3D8, elset=E3
3, 17, 18, 19, 20, 21, 22, 23, 24
*Element, type=C3D8, elset=E4
4, 25, 26, 27, 28, 29, 30, 31, 32
*Element, type=C3D8, elset=E5
5, 33, 34, 35, 36, 37, 38, 39, 40
*Element, type=C3D8, elset=E6
6, 41, 42, 43, 44, 45, 46, 47, 48
*Element, type=C3D8, elset=E7
7, 49, 50, 51, 52, 53, 54, 55, 56
*Element, type=C3D8, elset=E8
8, 57, 58, 59, 60, 61, 62, 63, 64
*Element, type=C3D8, elset=E9
9, 65, 66, 67, 68, 69, 70, 71, 72
*Element, type=C3D8, elset=E10
10, 73, 74, 75, 76, 77, 78, 79, 80
*Element, type=C3D8, elset=E11
11, 81, 82, 83, 84, 85, 86, 87, 88
*Element, type=C3D8, elset=E12
12, 89, 90, 91, 92, 93, 94, 95, 96
*Element, type=C3D8, elset=E13
13, 97, 98, 99, 100, 101, 102, 103, 104
*Element, type=C3D8, elset=E14
14, 105, 106, 107, 108, 109, 110, 111, 112
*Orientation, name=BASE, system=RECTANGULAR
0.9205048534524404, 0.39073112848927377, 0.0, -0.39073112848927377, 0.9205048534524404, 0.0
3, 0.
*Solid Section, elset=E1, material=M1, orientation=BASE
1.,
*Solid Section, elset=E2, material=M2, orientation=BASE
1.,
*Solid Section, elset=E3, material=M3, orientation=BASE
1.,
*Solid Section, elset=E4, material=M4, orientation=BASE
1.,
*Solid Section, elset=E5, material=M5, orientation=BASE
1.,
*Solid Section, elset=E6, material=M6, orientation=BASE
1.,
*Solid Section, elset=E7, material=M7, orientation=BASE
1.,
*Solid Section, elset=E8, material=M8, orientation=BASE
1.,
*Solid Section, elset=E9, material=M9, orientation=BASE
1.,
*Solid Section, elset=E10, material=M10, orientation=BASE
1.,
*Solid Section, elset=E11, material=M11, orientation=BASE
1.,
*Solid Section, elset=E12, material=M12, orientation=BASE
1.,
*Solid Section, elset=E13, material=M13, orientation=BASE
1.,
*Solid Section, elset=E14, material=M14, orientation=BASE
1.,
*Material, name=M1
*Depvar
84,
*User Material, constants=28, unsymm
141000 ,11400 ,11400 ,0.28 ,0.28 ,0.28 ,7100 ,7100
7100 ,2080 ,1250 ,60 ,290 ,110 ,110 ,110
0.07 ,0.14 ,0.2 ,0.4 ,0.9 ,0.5 ,0 ,1
1 ,0 ,202609 ,1
*Material, name=M2
*Depvar
84,
*User Material, constants=28, unsymm
141000 ,11400 ,11400 ,0.28 ,0.28 ,0.28 ,7100 ,7100
7100 ,2080 ,1250 ,60 ,290 ,110 ,110 ,110
0.07 ,0.14 ,0.2 ,0.4 ,0.9 ,0.5 ,0 ,1
1 ,0 ,202609 ,1
*Material, name=M3
*Depvar
84,
*User Material, constants=28, unsymm
141000 ,11400 ,11400 ,0.28 ,0.28 ,0.28 ,7100 ,7100
7100 ,2080 ,1250 ,60 ,290 ,110 ,110 ,110
0.07 ,0.14 ,0.2 ,0.4 ,0.9 ,0.5 ,0 ,1
1 ,0 ,202609 ,1
*Material, name=M4
*Depvar
84,
*User Material, constants=28, unsymm
141000 ,11400 ,11400 ,0.28 ,0.28 ,0.28 ,7100 ,7100
7100 ,2080 ,1250 ,60 ,290 ,110 ,110 ,110
0.07 ,0.14 ,0.2 ,0.4 ,0.9 ,0.5 ,0 ,1
1 ,0 ,202609 ,1
*Material, name=M5
*Depvar
84,
*User Material, constants=28, unsymm
141000 ,11400 ,11400 ,0.28 ,0.28 ,0.28 ,7100 ,7100
7100 ,2080 ,1250 ,60 ,290 ,110 ,110 ,110
0.07 ,0.14 ,0.2 ,0.4 ,0.9 ,0.5 ,0 ,1
1 ,0 ,202609 ,1
*Material, name=M6
*Depvar
84,
*User Material, constants=28, unsymm
141000 ,11400 ,11400 ,0.28 ,0.28 ,0.28 ,7100 ,7100
7100 ,2080 ,1250 ,60 ,290 ,110 ,110 ,110
0.07 ,0.14 ,0.2 ,0.4 ,0.9 ,0.5 ,0 ,1
1 ,0 ,202609 ,1
*Material, name=M7
*Depvar
84,
*User Material, constants=28, unsymm
141000 ,11400 ,11400 ,0.28 ,0.28 ,0.28 ,7100 ,7100
7100 ,2080 ,1250 ,60 ,290 ,110 ,110 ,110
0.07 ,0.14 ,0.2 ,0.4 ,0.9 ,0.5 ,0 ,1
1 ,0 ,202609 ,1
*Material, name=M8
*Depvar
84,
*User Material, constants=28, unsymm
141000 ,11400 ,11400 ,0.28 ,0.28 ,0.28 ,7100 ,7100
7100 ,2080 ,1250 ,60 ,290 ,110 ,110 ,110
0.07 ,0.14 ,0.2 ,0.4 ,0.9 ,0.5 ,90 ,1
1 ,0 ,202609 ,1
*Material, name=M9
*Depvar
84,
*User Material, constants=28, unsymm
141000 ,11400 ,11400 ,0.28 ,0.28 ,0.28 ,7100 ,7100
7100 ,2080 ,1250 ,60 ,290 ,110 ,110 ,110
0.07 ,0.14 ,0.2 ,0.4 ,0.9 ,0.5 ,90 ,1
1 ,0 ,202609 ,1
*Material, name=M10
*Depvar
84,
*User Material, constants=28, unsymm
141000 ,11400 ,11400 ,0.28 ,0.28 ,0.28 ,7100 ,7100
7100 ,2080 ,1250 ,60 ,290 ,110 ,110 ,110
0.07 ,0.14 ,0.2 ,0.4 ,0.9 ,0.5 ,90 ,1
1 ,0 ,202609 ,1
*Material, name=M11
*Depvar
84,
*User Material, constants=28, unsymm
141000 ,11400 ,11400 ,0.28 ,0.28 ,0.28 ,7100 ,7100
7100 ,2080 ,1250 ,60 ,290 ,110 ,110 ,110
0.07 ,0.14 ,0.2 ,0.4 ,0.9 ,0.5 ,90 ,1
1 ,0 ,202609 ,1
*Material, name=M12
*Depvar
84,
*User Material, constants=28, unsymm
141000 ,11400 ,11400 ,0.28 ,0.28 ,0.28 ,7100 ,7100
7100 ,2080 ,1250 ,60 ,290 ,110 ,110 ,110
0.07 ,0.14 ,0.2 ,0.4 ,0.9 ,0.5 ,90 ,1
1 ,0 ,202609 ,1
*Material, name=M13
*Depvar
84,
*User Material, constants=28, unsymm
141000 ,11400 ,11400 ,0.28 ,0.28 ,0.28 ,7100 ,7100
7100 ,2080 ,1250 ,60 ,290 ,110 ,110 ,110
0.07 ,0.14 ,0.2 ,0.4 ,0.9 ,0.5 ,90 ,1
1 ,0 ,202609 ,1
*Material, name=M14
*Depvar
84,
*User Material, constants=28, unsymm
141000 ,11400 ,11400 ,0.28 ,0.28 ,0.28 ,7100 ,7100
7100 ,2080 ,1250 ,60 ,290 ,110 ,110 ,110
0.07 ,0.14 ,0.2 ,0.4 ,0.9 ,0.5 ,90 ,1
1 ,0 ,202609 ,1
*Step, name=LOAD, inc=1000, nlgeom=NO
*Static
0.01, 1., 1e-8, 0.01
*Boundary
1, 1, 1, 0
1, 2, 2, 0
1, 3, 3, 0
2, 1, 1, 0.003218325428375
2, 2, 2, 0.0018415098888669
2, 3, 3, 0
3, 1, 1, 0.005059835317242
3, 2, 2, 0.0015031844604919
3, 3, 3, 0
4, 1, 1, 0.0018415098888669
4, 2, 2, -0.00033832542837503
4, 3, 3, 0
5, 1, 1, 0
5, 2, 2, 0
5, 3, 3, -0.00112
6, 1, 1, 0.003218325428375
6, 2, 2, 0.0018415098888669
6, 3, 3, -0.00112
7, 1, 1, 0.005059835317242
7, 2, 2, 0.0015031844604919
7, 3, 3, -0.00112
8, 1, 1, 0.0018415098888669
8, 2, 2, -0.00033832542837503
8, 3, 3, -0.00112
9, 1, 1, 0
9, 2, 2, 0
9, 3, 3, 0
10, 1, 1, -0.001930995257025
10, 2, 2, -0.0011049059333202
10, 3, 3, 0
11, 1, 1, -0.0030359011903452
11, 2, 2, -0.00090191067629515
11, 3, 3, 0
12, 1, 1, -0.0011049059333202
12, 2, 2, 0.00020299525702502
12, 3, 3, 0
13, 1, 1, 0
13, 2, 2, 0
13, 3, 3, 0.000672
14, 1, 1, -0.001930995257025
14, 2, 2, -0.0011049059333202
14, 3, 3, 0.000672
15, 1, 1, -0.0030359011903452
15, 2, 2, -0.00090191067629515
15, 3, 3, 0.000672
16, 1, 1, -0.0011049059333202
16, 2, 2, 0.00020299525702502
16, 3, 3, 0.000672
17, 1, 1, 0
17, 2, 2, 0
17, 3, 3, 0
18, 1, 1, 0.0002669774485587
18, 2, 2, -0.00073562442901015
18, 3, 3, 0
19, 1, 1, -0.00046864698045145
19, 2, 2, 0.00095212152668648
19, 3, 3, 0
20, 1, 1, -0.00073562442901015
20, 2, 2, 0.0016877459556966
20, 3, 3, 0
21, 1, 1, 0
21, 2, 2, 0
21, 3, 3, -0.00056
22, 1, 1, 0.0002669774485587
22, 2, 2, -0.00073562442901015
22, 3, 3, -0.00056
23, 1, 1, -0.00046864698045145
23, 2, 2, 0.00095212152668648
23, 3, 3, -0.00056
24, 1, 1, -0.00073562442901015
24, 2, 2, 0.0016877459556966
24, 3, 3, -0.00056
25, 1, 1, 0
25, 2, 2, 0
25, 3, 3, 0
26, 1, 1, -0.00080093234567609
26, 2, 2, 0.0022068732870304
26, 3, 3, 0
27, 1, 1, 0.0014059409413544
27, 2, 2, -0.0028563645800594
27, 3, 3, 0
28, 1, 1, 0.0022068732870304
28, 2, 2, -0.0050632378670899
28, 3, 3, 0
29, 1, 1, 0
29, 2, 2, 0
29, 3, 3, 0.00168
30, 1, 1, -0.00080093234567609
30, 2, 2, 0.0022068732870304
30, 3, 3, 0.00168
31, 1, 1, 0.0014059409413544
31, 2, 2, -0.0028563645800594
31, 3, 3, 0.00168
32, 1, 1, 0.0022068732870304
32, 2, 2, -0.0050632378670899
32, 3, 3, 0.00168
33, 1, 1, 0
33, 2, 2, 0
33, 3, 3, 0
34, 1, 1, -0.001438676547261
34, 2, 2, 0.00138930954752
34, 3, 3, 0
35, 1, 1, -4.9366999741016e-05
35, 2, 2, 0.002828006094781
35, 3, 3, 0
36, 1, 1, 0.00138930954752
36, 2, 2, 0.001438696547261
36, 3, 3, 0
37, 1, 1, 0
37, 2, 2, 0
37, 3, 3, 0
38, 1, 1, -0.001438676547261
38, 2, 2, 0.00138930954752
38, 3, 3, 0
39, 1, 1, -4.9366999741016e-05
39, 2, 2, 0.002828006094781
39, 3, 3, 0
40, 1, 1, 0.00138930954752
40, 2, 2, 0.001438696547261
40, 3, 3, 0
41, 1, 1, 0
41, 2, 2, 0
41, 3, 3, 0
42, 1, 1, 3.05341629541e-09
42, 2, 2, -7.1933980033865e-09
42, 3, 3, 0.0018410097069049
43, 1, 1, -4.1399817079765e-09
43, 2, 2, 9.7531857012035e-09
43, 3, 3, 0.0026224719638834
44, 1, 1, -7.1933980033865e-09
44, 2, 2, 1.694658370459e-08
44, 3, 3, 0.00078146225697855
45, 1, 1, 0.0018410097069049
45, 2, 2, 0.00078146225697855
45, 3, 3, 0
46, 1, 1, 0.0018410127603212
46, 2, 2, 0.00078145506358054
46, 3, 3, 0.0018410097069049
47, 1, 1, 0.0018410055669232
47, 2, 2, 0.00078147201016425
47, 3, 3, 0.0026224719638834
48, 1, 1, 0.0018410025135069
48, 2, 2, 0.00078147920356225
48, 3, 3, 0.00078146225697855
49, 1, 1, 0
49, 2, 2, 0
49, 3, 3, 0
50, 1, 1, 3.05341629541e-09
50, 2, 2, -7.1933980033865e-09
50, 3, 3, -0.00078146225697855
51, 1, 1, -4.1399817079765e-09
51, 2, 2, 9.7531857012035e-09
51, 3, 3, 0.0010595474499263
52, 1, 1, -7.1933980033865e-09
52, 2, 2, 1.694658370459e-08
52, 3, 3, 0.0018410097069049
53, 1, 1, -0.00078146225697855
53, 2, 2, 0.0018410097069049
53, 3, 3, 0
54, 1, 1, -0.00078145920356225
54, 2, 2, 0.0018410025135069
54, 3, 3, -0.00078146225697855
55, 1, 1, -0.00078146639696026
55, 2, 2, 0.0018410194600906
55, 3, 3, 0.0010595474499263
56, 1, 1, -0.00078146945037655
56, 2, 2, 0.0018410266534886
56, 3, 3, 0.0018410097069049
57, 1, 1, 0
57, 2, 2, 0
57, 3, 3, 0
58, 1, 1, -0.00033832542837503
58, 2, 2, -0.0018415098888669
58, 3, 3, 0
59, 1, 1, -0.002179835317242
59, 2, 2, 0.0013768155395081
59, 3, 3, 0
60, 1, 1, -0.0018415098888669
60, 2, 2, 0.003218325428375
60, 3, 3, 0
61, 1, 1, 0
61, 2, 2, 0
61, 3, 3, -0.00112
62, 1, 1, -0.00033832542837503
62, 2, 2, -0.0018415098888669
62, 3, 3, -0.00112
63, 1, 1, -0.002179835317242
63, 2, 2, 0.0013768155395081
63, 3, 3, -0.00112
64, 1, 1, -0.0018415098888669
64, 2, 2, 0.003218325428375
64, 3, 3, -0.00112
65, 1, 1, 0
65, 2, 2, 0
65, 3, 3, 0
66, 1, 1, 0.00020299525702502
66, 2, 2, 0.0011049059333202
66, 3, 3, 0
67, 1, 1, 0.0013079011903452
67, 2, 2, -0.00082608932370485
67, 3, 3, 0
68, 1, 1, 0.0011049059333202
68, 2, 2, -0.001930995257025
68, 3, 3, 0
69, 1, 1, 0
69, 2, 2, 0
69, 3, 3, 0.000672
70, 1, 1, 0.00020299525702502
70, 2, 2, 0.0011049059333202
70, 3, 3, 0.000672
71, 1, 1, 0.0013079011903452
71, 2, 2, -0.00082608932370485
71, 3, 3, 0.000672
72, 1, 1, 0.0011049059333202
72, 2, 2, -0.001930995257025
72, 3, 3, 0.000672
73, 1, 1, 0
73, 2, 2, 0
73, 3, 3, 0
74, 1, 1, 0.0016877459556966
74, 2, 2, 0.00073562442901015
74, 3, 3, 0
75, 1, 1, 0.0024233703847068
75, 2, 2, 0.0010026018775688
75, 3, 3, 0
76, 1, 1, 0.00073562442901015
76, 2, 2, 0.0002669774485587
76, 3, 3, 0
77, 1, 1, 0
77, 2, 2, 0
77, 3, 3, -0.00056
78, 1, 1, 0.0016877459556966
78, 2, 2, 0.00073562442901015
78, 3, 3, -0.00056
79, 1, 1, 0.0024233703847068
79, 2, 2, 0.0010026018775688
79, 3, 3, -0.00056
80, 1, 1, 0.00073562442901015
80, 2, 2, 0.0002669774485587
80, 3, 3, -0.00056
81, 1, 1, 0
81, 2, 2, 0
81, 3, 3, 0
82, 1, 1, -0.0050632378670899
82, 2, 2, -0.0022068732870304
82, 3, 3, 0
83, 1, 1, -0.0072701111541203
83, 2, 2, -0.0030078056327065
83, 3, 3, 0
84, 1, 1, -0.0022068732870304
84, 2, 2, -0.00080093234567609
84, 3, 3, 0
85, 1, 1, 0
85, 2, 2, 0
85, 3, 3, 0.00168
86, 1, 1, -0.0050632378670899
86, 2, 2, -0.0022068732870304
86, 3, 3, 0.00168
87, 1, 1, -0.0072701111541203
87, 2, 2, -0.0030078056327065
87, 3, 3, 0.00168
88, 1, 1, -0.0022068732870304
88, 2, 2, -0.00080093234567609
88, 3, 3, 0.00168
89, 1, 1, 0
89, 2, 2, 0
89, 3, 3, 0
90, 1, 1, 0.001438696547261
90, 2, 2, -0.00138930954752
90, 3, 3, 0
91, 1, 1, 4.9386999741015e-05
91, 2, 2, -0.002827986094781
91, 3, 3, 0
92, 1, 1, -0.00138930954752
92, 2, 2, -0.001438676547261
92, 3, 3, 0
93, 1, 1, 0
93, 2, 2, 0
93, 3, 3, 0
94, 1, 1, 0.001438696547261
94, 2, 2, -0.00138930954752
94, 3, 3, 0
95, 1, 1, 4.9386999741015e-05
95, 2, 2, -0.002827986094781
95, 3, 3, 0
96, 1, 1, -0.00138930954752
96, 2, 2, -0.001438676547261
96, 3, 3, 0
97, 1, 1, 0
97, 2, 2, 0
97, 3, 3, 0
98, 1, 1, 1.694658370459e-08
98, 2, 2, 7.1933980033865e-09
98, 3, 3, -0.00078146225697855
99, 1, 1, 2.4139981707976e-08
99, 2, 2, 1.0246814298797e-08
99, 3, 3, 0.0010595474499263
100, 1, 1, 7.1933980033865e-09
100, 2, 2, 3.05341629541e-09
100, 3, 3, 0.0018410097069049
101, 1, 1, -0.00078146225697855
101, 2, 2, 0.0018410097069049
101, 3, 3, 0
102, 1, 1, -0.00078144531039484
102, 2, 2, 0.0018410169003029
102, 3, 3, -0.00078146225697855
103, 1, 1, -0.00078143811699684
103, 2, 2, 0.0018410199537192
103, 3, 3, 0.0010595474499263
104, 1, 1, -0.00078145506358054
104, 2, 2, 0.0018410127603212
104, 3, 3, 0.0018410097069049
105, 1, 1, 0
105, 2, 2, 0
105, 3, 3, 0
106, 1, 1, 1.694658370459e-08
106, 2, 2, 7.1933980033865e-09
106, 3, 3, -0.0018410097069049
107, 1, 1, 2.4139981707976e-08
107, 2, 2, 1.0246814298797e-08
107, 3, 3, -0.0026224719638834
108, 1, 1, 7.1933980033865e-09
108, 2, 2, 3.05341629541e-09
108, 3, 3, -0.00078146225697855
109, 1, 1, -0.0018410097069049
109, 2, 2, -0.00078146225697855
109, 3, 3, 0
110, 1, 1, -0.0018409927603212
110, 2, 2, -0.00078145506358054
110, 3, 3, -0.0018410097069049
111, 1, 1, -0.0018409855669232
111, 2, 2, -0.00078145201016425
111, 3, 3, -0.0026224719638834
112, 1, 1, -0.0018410025135069
112, 2, 2, -0.00078145920356225
112, 3, 3, -0.00078146225697855
*Output, field, frequency=1
*Element Output
S, E, SDV
*Node Output
U, RF
*End Step
