*Heading
** WCM B mesh block study; mm N MPa
*Node
1, 0, 0, 0
2, 3, 0, 0
3, 6, 0, 0
4, 0, 3, 0
5, 3, 3, 0
6, 6, 3, 0
7, 0, 6, 0
8, 3, 6, 0
9, 6, 6, 0
10, 0, 0, 3
11, 3, 0, 3
12, 6, 0, 3
13, 0, 3, 3
14, 3, 3, 3
15, 6, 3, 3
16, 0, 6, 3
17, 3, 6, 3
18, 6, 6, 3
19, 0, 0, 6
20, 3, 0, 6
21, 6, 0, 6
22, 0, 3, 6
23, 3, 3, 6
24, 6, 3, 6
25, 0, 6, 6
26, 3, 6, 6
27, 6, 6, 6
*Element, type=C3D8R, elset=EALL
1, 1, 2, 5, 4, 10, 11, 14, 13
2, 2, 3, 6, 5, 11, 12, 15, 14
3, 4, 5, 8, 7, 13, 14, 17, 16
4, 5, 6, 9, 8, 14, 15, 18, 17
5, 10, 11, 14, 13, 19, 20, 23, 22
6, 11, 12, 15, 14, 20, 21, 24, 23
7, 13, 14, 17, 16, 22, 23, 26, 25
8, 14, 15, 18, 17, 23, 24, 27, 26
*Section Controls, name=HG_UMAT, hourglass=ENHANCED
*Solid Section, elset=EALL, material=PLY_B, controls=HG_UMAT
3.0,
*Material, name=PLY_B
*Depvar
62,
*User Material, constants=30, unsymm
141000 ,11400 ,11400 ,0.28 ,0.28 ,0.28 ,7100 ,7100
7100 ,2080 ,1250 ,60 ,290 ,110 ,110 ,110
133 ,10 ,0.5 ,1.6 ,1 ,0.9 ,0.5 ,0.0001
0.005 ,90 ,0.5 ,1 ,1 ,0
*Step, name=MESH, inc=10000, nlgeom=NO
*Static
0.005, 1., 1e-20, 0.1
*Amplitude, name=RAMP
0., 0.
1., 1.
*Boundary, amplitude=RAMP
1, 1, 1, 0
1, 2, 2, 0
1, 3, 3, -0
2, 1, 1, 0.072914242744446
2, 2, 2, -0.0015693316818215
2, 3, 3, -0.018301677424461
3, 1, 1, 0.14582848548889
3, 2, 2, -0.003138663363643
3, 3, 3, -0.036603354848921
4, 1, 1, -0.0015693316818215
4, 2, 2, 0.026087779551744
4, 3, 3, -0.0015451935469173
5, 1, 1, 0.071344911062624
5, 2, 2, 0.024518447869923
5, 3, 3, -0.019846870971378
6, 1, 1, 0.14425915380707
6, 2, 2, 0.022949116188101
6, 3, 3, -0.038148548395839
7, 1, 1, -0.003138663363643
7, 2, 2, 0.052175559103489
7, 3, 3, -0.0030903870938346
8, 1, 1, 0.069775579380803
8, 2, 2, 0.050606227421667
8, 3, 3, -0.021392064518295
9, 1, 1, 0.14268982212525
9, 2, 2, 0.049036895739846
9, 3, 3, -0.039693741942756
10, 1, 1, -0.018301677424461
10, 2, 2, -0.0015451935469173
10, 3, 3, -0.0051510703051463
11, 1, 1, 0.054612565319985
11, 2, 2, -0.0031145252287388
11, 3, 3, -0.023452747729607
12, 1, 1, 0.12752680806443
12, 2, 2, -0.0046838569105603
12, 3, 3, -0.041754425154068
13, 1, 1, -0.019871009106282
13, 2, 2, 0.024542586004827
13, 3, 3, -0.0066962638520636
14, 1, 1, 0.053043233638164
14, 2, 2, 0.022973254323006
14, 3, 3, -0.024997941276524
15, 1, 1, 0.12595747638261
15, 2, 2, 0.021403922641184
15, 3, 3, -0.043299618700985
16, 1, 1, -0.021440340788104
16, 2, 2, 0.050630365556572
16, 3, 3, -0.0082414573989809
17, 1, 1, 0.051473901956342
17, 2, 2, 0.04906103387475
17, 3, 3, -0.026543134823442
18, 1, 1, 0.12438814470079
18, 2, 2, 0.047491702192929
18, 3, 3, -0.044844812247902
19, 1, 1, -0.036603354848921
19, 2, 2, -0.0030903870938346
19, 3, 3, -0.010302140610293
20, 1, 1, 0.036310887895525
20, 2, 2, -0.0046597187756561
20, 3, 3, -0.028603818034753
21, 1, 1, 0.10922513063997
21, 2, 2, -0.0062290504574776
21, 3, 3, -0.046905495459214
22, 1, 1, -0.038172686530743
22, 2, 2, 0.02299739245791
22, 3, 3, -0.01184733415721
23, 1, 1, 0.034741556213703
23, 2, 2, 0.021428060776088
23, 3, 3, -0.03014901158167
24, 1, 1, 0.10765579895815
24, 2, 2, 0.019858729094267
24, 3, 3, -0.048450689006131
25, 1, 1, -0.039742018212564
25, 2, 2, 0.049085172009654
25, 3, 3, -0.013392527704127
26, 1, 1, 0.033172224531882
26, 2, 2, 0.047515840327833
26, 3, 3, -0.031694205128588
27, 1, 1, 0.10608646727633
27, 2, 2, 0.045946508646011
27, 3, 3, -0.049995882553048
*Output, field, frequency=1
*Element Output
S, E, SDV
*Node Output
U
*Output, history, frequency=1
*Energy Output
ALLSE, ALLIE, ALLPD, ALLAE
*End Step
