*Heading
** WCM angle verification; mm N MPa
*Node
1, 2.0, 0.0, 0.0
2, 2.2, 0.0, 0.0
3, 2.2, 0.2, 0.0
4, 2.0, 0.2, 0.0
5, 2.0, 0.0, 0.2
6, 2.2, 0.0, 0.2
7, 2.2, 0.2, 0.2
8, 2.0, 0.2, 0.2
9, 4.0, 0.0, 0.0
10, 4.2, 0.0, 0.0
11, 4.2, 0.2, 0.0
12, 4.0, 0.2, 0.0
13, 4.0, 0.0, 0.2
14, 4.2, 0.0, 0.2
15, 4.2, 0.2, 0.2
16, 4.0, 0.2, 0.2
17, 6.0, 0.0, 0.0
18, 6.2, 0.0, 0.0
19, 6.2, 0.2, 0.0
20, 6.0, 0.2, 0.0
21, 6.0, 0.0, 0.2
22, 6.2, 0.0, 0.2
23, 6.2, 0.2, 0.2
24, 6.0, 0.2, 0.2
25, 8.0, 0.0, 0.0
26, 8.2, 0.0, 0.0
27, 8.2, 0.2, 0.0
28, 8.0, 0.2, 0.0
29, 8.0, 0.0, 0.2
30, 8.2, 0.0, 0.2
31, 8.2, 0.2, 0.2
32, 8.0, 0.2, 0.2
33, 10.0, 0.0, 0.0
34, 10.2, 0.0, 0.0
35, 10.2, 0.2, 0.0
36, 10.0, 0.2, 0.0
37, 10.0, 0.0, 0.2
38, 10.2, 0.0, 0.2
39, 10.2, 0.2, 0.2
40, 10.0, 0.2, 0.2
41, 12.0, 0.0, 0.0
42, 12.2, 0.0, 0.0
43, 12.2, 0.2, 0.0
44, 12.0, 0.2, 0.0
45, 12.0, 0.0, 0.2
46, 12.2, 0.0, 0.2
47, 12.2, 0.2, 0.2
48, 12.0, 0.2, 0.2
49, 14.0, 0.0, 0.0
50, 14.2, 0.0, 0.0
51, 14.2, 0.2, 0.0
52, 14.0, 0.2, 0.0
53, 14.0, 0.0, 0.2
54, 14.2, 0.0, 0.2
55, 14.2, 0.2, 0.2
56, 14.0, 0.2, 0.2
57, 16.0, 0.0, 0.0
58, 16.2, 0.0, 0.0
59, 16.2, 0.2, 0.0
60, 16.0, 0.2, 0.0
61, 16.0, 0.0, 0.2
62, 16.2, 0.0, 0.2
63, 16.2, 0.2, 0.2
64, 16.0, 0.2, 0.2
*Element, type=C3D8, elset=E1
1, 1, 2, 3, 4, 5, 6, 7, 8
*Element, type=C3D8, elset=E2
2, 9, 10, 11, 12, 13, 14, 15, 16
*Element, type=C3D8, elset=E3
3, 17, 18, 19, 20, 21, 22, 23, 24
*Element, type=C3D8, elset=E4
4, 25, 26, 27, 28, 29, 30, 31, 32
*Element, type=C3D8, elset=E5
5, 33, 34, 35, 36, 37, 38, 39, 40
*Element, type=C3D8, elset=E6
6, 41, 42, 43, 44, 45, 46, 47, 48
*Element, type=C3D8, elset=E7
7, 49, 50, 51, 52, 53, 54, 55, 56
*Element, type=C3D8, elset=E8
8, 57, 58, 59, 60, 61, 62, 63, 64
*Orientation, name=BASE, system=RECTANGULAR
0.9205048534524404, 0.39073112848927377, 0.0, -0.39073112848927377, 0.9205048534524404, 0.0
3, 0.
*Solid Section, elset=E1, material=M1, orientation=BASE
1.,
*Solid Section, elset=E2, material=M2, orientation=BASE
1.,
*Solid Section, elset=E3, material=M3, orientation=BASE
1.,
*Solid Section, elset=E4, material=M4, orientation=BASE
1.,
*Solid Section, elset=E5, material=M5, orientation=BASE
1.,
*Solid Section, elset=E6, material=M6, orientation=BASE
1.,
*Solid Section, elset=E7, material=M7, orientation=BASE
1.,
*Solid Section, elset=E8, material=M8, orientation=BASE
1.,
*Material, name=M1
*Depvar
62,
*User Material, constants=30, unsymm
141000 ,11400 ,11400 ,0.28 ,0.28 ,0.28 ,7100 ,7100
7100 ,2080 ,1250 ,60 ,290 ,110 ,110 ,110
4 ,1.6 ,0.045 ,1 ,1 ,0.9 ,0.5 ,0.02
0.02 ,0 ,1 ,1 ,1 ,0
*Material, name=M2
*Depvar
62,
*User Material, constants=30, unsymm
141000 ,11400 ,11400 ,0.28 ,0.28 ,0.28 ,7100 ,7100
7100 ,2080 ,1250 ,60 ,290 ,110 ,110 ,110
4 ,1.6 ,0.045 ,1 ,1 ,0.9 ,0.5 ,0.02
0.02 ,0 ,1 ,1 ,1 ,0
*Material, name=M3
*Depvar
62,
*User Material, constants=30, unsymm
141000 ,11400 ,11400 ,0.28 ,0.28 ,0.28 ,7100 ,7100
7100 ,2080 ,1250 ,60 ,290 ,110 ,110 ,110
4 ,1.6 ,0.045 ,1 ,1 ,0.9 ,0.5 ,0.02
0.02 ,0 ,1 ,1 ,1 ,0
*Material, name=M4
*Depvar
62,
*User Material, constants=30, unsymm
141000 ,11400 ,11400 ,0.28 ,0.28 ,0.28 ,7100 ,7100
7100 ,2080 ,1250 ,60 ,290 ,110 ,110 ,110
4 ,1.6 ,0.045 ,1 ,1 ,0.9 ,0.5 ,0.02
0.02 ,0 ,1 ,1 ,1 ,0
*Material, name=M5
*Depvar
62,
*User Material, constants=30, unsymm
141000 ,11400 ,11400 ,0.28 ,0.28 ,0.28 ,7100 ,7100
7100 ,2080 ,1250 ,60 ,290 ,110 ,110 ,110
4 ,1.6 ,0.045 ,1 ,1 ,0.9 ,0.5 ,0.02
0.02 ,90 ,1 ,1 ,1 ,0
*Material, name=M6
*Depvar
62,
*User Material, constants=30, unsymm
141000 ,11400 ,11400 ,0.28 ,0.28 ,0.28 ,7100 ,7100
7100 ,2080 ,1250 ,60 ,290 ,110 ,110 ,110
4 ,1.6 ,0.045 ,1 ,1 ,0.9 ,0.5 ,0.02
0.02 ,90 ,1 ,1 ,1 ,0
*Material, name=M7
*Depvar
62,
*User Material, constants=30, unsymm
141000 ,11400 ,11400 ,0.28 ,0.28 ,0.28 ,7100 ,7100
7100 ,2080 ,1250 ,60 ,290 ,110 ,110 ,110
4 ,1.6 ,0.045 ,1 ,1 ,0.9 ,0.5 ,0.02
0.02 ,90 ,1 ,1 ,1 ,0
*Material, name=M8
*Depvar
62,
*User Material, constants=30, unsymm
141000 ,11400 ,11400 ,0.28 ,0.28 ,0.28 ,7100 ,7100
7100 ,2080 ,1250 ,60 ,290 ,110 ,110 ,110
4 ,1.6 ,0.045 ,1 ,1 ,0.9 ,0.5 ,0.02
0.02 ,90 ,1 ,1 ,1 ,0
*Step, name=LOAD, inc=1000, nlgeom=NO
*Static
0.01, 1., 1e-8, 0.01
*Boundary
1, 1, 1, 0
1, 2, 2, 0
1, 3, 3, 0
2, 1, 1, 0.0048274881425625
2, 2, 2, 0.0027622648333004
2, 3, 3, 0
3, 1, 1, 0.007589752975863
3, 2, 2, 0.0022547766907379
3, 3, 3, 0
4, 1, 1, 0.0027622648333004
4, 2, 2, -0.00050748814256255
4, 3, 3, 0
5, 1, 1, 0
5, 2, 2, 0
5, 3, 3, -0.00168
6, 1, 1, 0.0048274881425625
6, 2, 2, 0.0027622648333004
6, 3, 3, -0.00168
7, 1, 1, 0.007589752975863
7, 2, 2, 0.0022547766907379
7, 3, 3, -0.00168
8, 1, 1, 0.0027622648333004
8, 2, 2, -0.00050748814256255
8, 3, 3, -0.00168
9, 1, 1, 0
9, 2, 2, 0
9, 3, 3, 0
10, 1, 1, -0.003218325428375
10, 2, 2, -0.0018415098888669
10, 3, 3, 0
11, 1, 1, -0.005059835317242
11, 2, 2, -0.0015031844604919
11, 3, 3, 0
12, 1, 1, -0.0018415098888669
12, 2, 2, 0.00033832542837503
12, 3, 3, 0
13, 1, 1, 0
13, 2, 2, 0
13, 3, 3, 0.00112
14, 1, 1, -0.003218325428375
14, 2, 2, -0.0018415098888669
14, 3, 3, 0.00112
15, 1, 1, -0.005059835317242
15, 2, 2, -0.0015031844604919
15, 3, 3, 0.00112
16, 1, 1, -0.0018415098888669
16, 2, 2, 0.00033832542837503
16, 3, 3, 0.00112
17, 1, 1, 0
17, 2, 2, 0
17, 3, 3, 0
18, 1, 1, 0.00032037293827044
18, 2, 2, -0.00088274931481218
18, 3, 3, 0
19, 1, 1, -0.00056237637654174
19, 2, 2, 0.0011425458320238
19, 3, 3, 0
20, 1, 1, -0.00088274931481218
20, 2, 2, 0.0020252951468359
20, 3, 3, 0
21, 1, 1, 0
21, 2, 2, 0
21, 3, 3, -0.000672
22, 1, 1, 0.00032037293827044
22, 2, 2, -0.00088274931481218
22, 3, 3, -0.000672
23, 1, 1, -0.00056237637654174
23, 2, 2, 0.0011425458320238
23, 3, 3, -0.000672
24, 1, 1, -0.00088274931481218
24, 2, 2, 0.0020252951468359
24, 3, 3, -0.000672
25, 1, 1, 0
25, 2, 2, 0
25, 3, 3, 0
26, 1, 1, -0.0013348872427935
26, 2, 2, 0.0036781221450507
26, 3, 3, 0
27, 1, 1, 0.0023432349022573
27, 2, 2, -0.0047606076334324
27, 3, 3, 0
28, 1, 1, 0.0036781221450507
28, 2, 2, -0.0084387297784831
28, 3, 3, 0
29, 1, 1, 0
29, 2, 2, 0
29, 3, 3, 0.0028
30, 1, 1, -0.0013348872427935
30, 2, 2, 0.0036781221450507
30, 3, 3, 0.0028
31, 1, 1, 0.0023432349022573
31, 2, 2, -0.0047606076334324
31, 3, 3, 0.0028
32, 1, 1, 0.0036781221450507
32, 2, 2, -0.0084387297784831
32, 3, 3, 0.0028
33, 1, 1, 0
33, 2, 2, 0
33, 3, 3, 0
34, 1, 1, -0.00050748814256255
34, 2, 2, -0.0027622648333004
34, 3, 3, 0
35, 1, 1, -0.003269752975863
35, 2, 2, 0.0020652233092621
35, 3, 3, 0
36, 1, 1, -0.0027622648333004
36, 2, 2, 0.0048274881425625
36, 3, 3, 0
37, 1, 1, 0
37, 2, 2, 0
37, 3, 3, -0.00168
38, 1, 1, -0.00050748814256255
38, 2, 2, -0.0027622648333004
38, 3, 3, -0.00168
39, 1, 1, -0.003269752975863
39, 2, 2, 0.0020652233092621
39, 3, 3, -0.00168
40, 1, 1, -0.0027622648333004
40, 2, 2, 0.0048274881425625
40, 3, 3, -0.00168
41, 1, 1, 0
41, 2, 2, 0
41, 3, 3, 0
42, 1, 1, 0.00033832542837503
42, 2, 2, 0.0018415098888669
42, 3, 3, 0
43, 1, 1, 0.002179835317242
43, 2, 2, -0.0013768155395081
43, 3, 3, 0
44, 1, 1, 0.0018415098888669
44, 2, 2, -0.003218325428375
44, 3, 3, 0
45, 1, 1, 0
45, 2, 2, 0
45, 3, 3, 0.00112
46, 1, 1, 0.00033832542837503
46, 2, 2, 0.0018415098888669
46, 3, 3, 0.00112
47, 1, 1, 0.002179835317242
47, 2, 2, -0.0013768155395081
47, 3, 3, 0.00112
48, 1, 1, 0.0018415098888669
48, 2, 2, -0.003218325428375
48, 3, 3, 0.00112
49, 1, 1, 0
49, 2, 2, 0
49, 3, 3, 0
50, 1, 1, 0.0020252951468359
50, 2, 2, 0.00088274931481218
50, 3, 3, 0
51, 1, 1, 0.0029080444616481
51, 2, 2, 0.0012031222530826
51, 3, 3, 0
52, 1, 1, 0.00088274931481218
52, 2, 2, 0.00032037293827044
52, 3, 3, 0
53, 1, 1, 0
53, 2, 2, 0
53, 3, 3, -0.000672
54, 1, 1, 0.0020252951468359
54, 2, 2, 0.00088274931481218
54, 3, 3, -0.000672
55, 1, 1, 0.0029080444616481
55, 2, 2, 0.0012031222530826
55, 3, 3, -0.000672
56, 1, 1, 0.00088274931481218
56, 2, 2, 0.00032037293827044
56, 3, 3, -0.000672
57, 1, 1, 0
57, 2, 2, 0
57, 3, 3, 0
58, 1, 1, -0.0084387297784831
58, 2, 2, -0.0036781221450507
58, 3, 3, 0
59, 1, 1, -0.012116851923534
59, 2, 2, -0.0050130093878442
59, 3, 3, 0
60, 1, 1, -0.0036781221450507
60, 2, 2, -0.0013348872427935
60, 3, 3, 0
61, 1, 1, 0
61, 2, 2, 0
61, 3, 3, 0.0028
62, 1, 1, -0.0084387297784831
62, 2, 2, -0.0036781221450507
62, 3, 3, 0.0028
63, 1, 1, -0.012116851923534
63, 2, 2, -0.0050130093878442
63, 3, 3, 0.0028
64, 1, 1, -0.0036781221450507
64, 2, 2, -0.0013348872427935
64, 3, 3, 0.0028
*Output, field, frequency=1
*Element Output
S, E
SDV1, SDV2, SDV3, SDV4, SDV5, SDV6, SDV7, SDV8
SDV9, SDV10
*Node Output
U, RF
*End Step
