*Heading
** WCM B mesh block study; mm N MPa
*Node
1, 0, 0, 0
2, 0.25, 0, 0
3, 0.5, 0, 0
4, 0.75, 0, 0
5, 1, 0, 0
6, 1.25, 0, 0
7, 1.5, 0, 0
8, 1.75, 0, 0
9, 2, 0, 0
10, 0, 0.25, 0
11, 0.25, 0.25, 0
12, 0.5, 0.25, 0
13, 0.75, 0.25, 0
14, 1, 0.25, 0
15, 1.25, 0.25, 0
16, 1.5, 0.25, 0
17, 1.75, 0.25, 0
18, 2, 0.25, 0
19, 0, 0.5, 0
20, 0.25, 0.5, 0
21, 0.5, 0.5, 0
22, 0.75, 0.5, 0
23, 1, 0.5, 0
24, 1.25, 0.5, 0
25, 1.5, 0.5, 0
26, 1.75, 0.5, 0
27, 2, 0.5, 0
28, 0, 0.75, 0
29, 0.25, 0.75, 0
30, 0.5, 0.75, 0
31, 0.75, 0.75, 0
32, 1, 0.75, 0
33, 1.25, 0.75, 0
34, 1.5, 0.75, 0
35, 1.75, 0.75, 0
36, 2, 0.75, 0
37, 0, 1, 0
38, 0.25, 1, 0
39, 0.5, 1, 0
40, 0.75, 1, 0
41, 1, 1, 0
42, 1.25, 1, 0
43, 1.5, 1, 0
44, 1.75, 1, 0
45, 2, 1, 0
46, 0, 1.25, 0
47, 0.25, 1.25, 0
48, 0.5, 1.25, 0
49, 0.75, 1.25, 0
50, 1, 1.25, 0
51, 1.25, 1.25, 0
52, 1.5, 1.25, 0
53, 1.75, 1.25, 0
54, 2, 1.25, 0
55, 0, 1.5, 0
56, 0.25, 1.5, 0
57, 0.5, 1.5, 0
58, 0.75, 1.5, 0
59, 1, 1.5, 0
60, 1.25, 1.5, 0
61, 1.5, 1.5, 0
62, 1.75, 1.5, 0
63, 2, 1.5, 0
64, 0, 1.75, 0
65, 0.25, 1.75, 0
66, 0.5, 1.75, 0
67, 0.75, 1.75, 0
68, 1, 1.75, 0
69, 1.25, 1.75, 0
70, 1.5, 1.75, 0
71, 1.75, 1.75, 0
72, 2, 1.75, 0
73, 0, 2, 0
74, 0.25, 2, 0
75, 0.5, 2, 0
76, 0.75, 2, 0
77, 1, 2, 0
78, 1.25, 2, 0
79, 1.5, 2, 0
80, 1.75, 2, 0
81, 2, 2, 0
82, 0, 0, 0.25
83, 0.25, 0, 0.25
84, 0.5, 0, 0.25
85, 0.75, 0, 0.25
86, 1, 0, 0.25
87, 1.25, 0, 0.25
88, 1.5, 0, 0.25
89, 1.75, 0, 0.25
90, 2, 0, 0.25
91, 0, 0.25, 0.25
92, 0.25, 0.25, 0.25
93, 0.5, 0.25, 0.25
94, 0.75, 0.25, 0.25
95, 1, 0.25, 0.25
96, 1.25, 0.25, 0.25
97, 1.5, 0.25, 0.25
98, 1.75, 0.25, 0.25
99, 2, 0.25, 0.25
100, 0, 0.5, 0.25
101, 0.25, 0.5, 0.25
102, 0.5, 0.5, 0.25
103, 0.75, 0.5, 0.25
104, 1, 0.5, 0.25
105, 1.25, 0.5, 0.25
106, 1.5, 0.5, 0.25
107, 1.75, 0.5, 0.25
108, 2, 0.5, 0.25
109, 0, 0.75, 0.25
110, 0.25, 0.75, 0.25
111, 0.5, 0.75, 0.25
112, 0.75, 0.75, 0.25
113, 1, 0.75, 0.25
114, 1.25, 0.75, 0.25
115, 1.5, 0.75, 0.25
116, 1.75, 0.75, 0.25
117, 2, 0.75, 0.25
118, 0, 1, 0.25
119, 0.25, 1, 0.25
120, 0.5, 1, 0.25
121, 0.75, 1, 0.25
122, 1, 1, 0.25
123, 1.25, 1, 0.25
124, 1.5, 1, 0.25
125, 1.75, 1, 0.25
126, 2, 1, 0.25
127, 0, 1.25, 0.25
128, 0.25, 1.25, 0.25
129, 0.5, 1.25, 0.25
130, 0.75, 1.25, 0.25
131, 1, 1.25, 0.25
132, 1.25, 1.25, 0.25
133, 1.5, 1.25, 0.25
134, 1.75, 1.25, 0.25
135, 2, 1.25, 0.25
136, 0, 1.5, 0.25
137, 0.25, 1.5, 0.25
138, 0.5, 1.5, 0.25
139, 0.75, 1.5, 0.25
140, 1, 1.5, 0.25
141, 1.25, 1.5, 0.25
142, 1.5, 1.5, 0.25
143, 1.75, 1.5, 0.25
144, 2, 1.5, 0.25
145, 0, 1.75, 0.25
146, 0.25, 1.75, 0.25
147, 0.5, 1.75, 0.25
148, 0.75, 1.75, 0.25
149, 1, 1.75, 0.25
150, 1.25, 1.75, 0.25
151, 1.5, 1.75, 0.25
152, 1.75, 1.75, 0.25
153, 2, 1.75, 0.25
154, 0, 2, 0.25
155, 0.25, 2, 0.25
156, 0.5, 2, 0.25
157, 0.75, 2, 0.25
158, 1, 2, 0.25
159, 1.25, 2, 0.25
160, 1.5, 2, 0.25
161, 1.75, 2, 0.25
162, 2, 2, 0.25
163, 0, 0, 0.5
164, 0.25, 0, 0.5
165, 0.5, 0, 0.5
166, 0.75, 0, 0.5
167, 1, 0, 0.5
168, 1.25, 0, 0.5
169, 1.5, 0, 0.5
170, 1.75, 0, 0.5
171, 2, 0, 0.5
172, 0, 0.25, 0.5
173, 0.25, 0.25, 0.5
174, 0.5, 0.25, 0.5
175, 0.75, 0.25, 0.5
176, 1, 0.25, 0.5
177, 1.25, 0.25, 0.5
178, 1.5, 0.25, 0.5
179, 1.75, 0.25, 0.5
180, 2, 0.25, 0.5
181, 0, 0.5, 0.5
182, 0.25, 0.5, 0.5
183, 0.5, 0.5, 0.5
184, 0.75, 0.5, 0.5
185, 1, 0.5, 0.5
186, 1.25, 0.5, 0.5
187, 1.5, 0.5, 0.5
188, 1.75, 0.5, 0.5
189, 2, 0.5, 0.5
190, 0, 0.75, 0.5
191, 0.25, 0.75, 0.5
192, 0.5, 0.75, 0.5
193, 0.75, 0.75, 0.5
194, 1, 0.75, 0.5
195, 1.25, 0.75, 0.5
196, 1.5, 0.75, 0.5
197, 1.75, 0.75, 0.5
198, 2, 0.75, 0.5
199, 0, 1, 0.5
200, 0.25, 1, 0.5
201, 0.5, 1, 0.5
202, 0.75, 1, 0.5
203, 1, 1, 0.5
204, 1.25, 1, 0.5
205, 1.5, 1, 0.5
206, 1.75, 1, 0.5
207, 2, 1, 0.5
208, 0, 1.25, 0.5
209, 0.25, 1.25, 0.5
210, 0.5, 1.25, 0.5
211, 0.75, 1.25, 0.5
212, 1, 1.25, 0.5
213, 1.25, 1.25, 0.5
214, 1.5, 1.25, 0.5
215, 1.75, 1.25, 0.5
216, 2, 1.25, 0.5
217, 0, 1.5, 0.5
218, 0.25, 1.5, 0.5
219, 0.5, 1.5, 0.5
220, 0.75, 1.5, 0.5
221, 1, 1.5, 0.5
222, 1.25, 1.5, 0.5
223, 1.5, 1.5, 0.5
224, 1.75, 1.5, 0.5
225, 2, 1.5, 0.5
226, 0, 1.75, 0.5
227, 0.25, 1.75, 0.5
228, 0.5, 1.75, 0.5
229, 0.75, 1.75, 0.5
230, 1, 1.75, 0.5
231, 1.25, 1.75, 0.5
232, 1.5, 1.75, 0.5
233, 1.75, 1.75, 0.5
234, 2, 1.75, 0.5
235, 0, 2, 0.5
236, 0.25, 2, 0.5
237, 0.5, 2, 0.5
238, 0.75, 2, 0.5
239, 1, 2, 0.5
240, 1.25, 2, 0.5
241, 1.5, 2, 0.5
242, 1.75, 2, 0.5
243, 2, 2, 0.5
244, 0, 0, 0.75
245, 0.25, 0, 0.75
246, 0.5, 0, 0.75
247, 0.75, 0, 0.75
248, 1, 0, 0.75
249, 1.25, 0, 0.75
250, 1.5, 0, 0.75
251, 1.75, 0, 0.75
252, 2, 0, 0.75
253, 0, 0.25, 0.75
254, 0.25, 0.25, 0.75
255, 0.5, 0.25, 0.75
256, 0.75, 0.25, 0.75
257, 1, 0.25, 0.75
258, 1.25, 0.25, 0.75
259, 1.5, 0.25, 0.75
260, 1.75, 0.25, 0.75
261, 2, 0.25, 0.75
262, 0, 0.5, 0.75
263, 0.25, 0.5, 0.75
264, 0.5, 0.5, 0.75
265, 0.75, 0.5, 0.75
266, 1, 0.5, 0.75
267, 1.25, 0.5, 0.75
268, 1.5, 0.5, 0.75
269, 1.75, 0.5, 0.75
270, 2, 0.5, 0.75
271, 0, 0.75, 0.75
272, 0.25, 0.75, 0.75
273, 0.5, 0.75, 0.75
274, 0.75, 0.75, 0.75
275, 1, 0.75, 0.75
276, 1.25, 0.75, 0.75
277, 1.5, 0.75, 0.75
278, 1.75, 0.75, 0.75
279, 2, 0.75, 0.75
280, 0, 1, 0.75
281, 0.25, 1, 0.75
282, 0.5, 1, 0.75
283, 0.75, 1, 0.75
284, 1, 1, 0.75
285, 1.25, 1, 0.75
286, 1.5, 1, 0.75
287, 1.75, 1, 0.75
288, 2, 1, 0.75
289, 0, 1.25, 0.75
290, 0.25, 1.25, 0.75
291, 0.5, 1.25, 0.75
292, 0.75, 1.25, 0.75
293, 1, 1.25, 0.75
294, 1.25, 1.25, 0.75
295, 1.5, 1.25, 0.75
296, 1.75, 1.25, 0.75
297, 2, 1.25, 0.75
298, 0, 1.5, 0.75
299, 0.25, 1.5, 0.75
300, 0.5, 1.5, 0.75
301, 0.75, 1.5, 0.75
302, 1, 1.5, 0.75
303, 1.25, 1.5, 0.75
304, 1.5, 1.5, 0.75
305, 1.75, 1.5, 0.75
306, 2, 1.5, 0.75
307, 0, 1.75, 0.75
308, 0.25, 1.75, 0.75
309, 0.5, 1.75, 0.75
310, 0.75, 1.75, 0.75
311, 1, 1.75, 0.75
312, 1.25, 1.75, 0.75
313, 1.5, 1.75, 0.75
314, 1.75, 1.75, 0.75
315, 2, 1.75, 0.75
316, 0, 2, 0.75
317, 0.25, 2, 0.75
318, 0.5, 2, 0.75
319, 0.75, 2, 0.75
320, 1, 2, 0.75
321, 1.25, 2, 0.75
322, 1.5, 2, 0.75
323, 1.75, 2, 0.75
324, 2, 2, 0.75
325, 0, 0, 1
326, 0.25, 0, 1
327, 0.5, 0, 1
328, 0.75, 0, 1
329, 1, 0, 1
330, 1.25, 0, 1
331, 1.5, 0, 1
332, 1.75, 0, 1
333, 2, 0, 1
334, 0, 0.25, 1
335, 0.25, 0.25, 1
336, 0.5, 0.25, 1
337, 0.75, 0.25, 1
338, 1, 0.25, 1
339, 1.25, 0.25, 1
340, 1.5, 0.25, 1
341, 1.75, 0.25, 1
342, 2, 0.25, 1
343, 0, 0.5, 1
344, 0.25, 0.5, 1
345, 0.5, 0.5, 1
346, 0.75, 0.5, 1
347, 1, 0.5, 1
348, 1.25, 0.5, 1
349, 1.5, 0.5, 1
350, 1.75, 0.5, 1
351, 2, 0.5, 1
352, 0, 0.75, 1
353, 0.25, 0.75, 1
354, 0.5, 0.75, 1
355, 0.75, 0.75, 1
356, 1, 0.75, 1
357, 1.25, 0.75, 1
358, 1.5, 0.75, 1
359, 1.75, 0.75, 1
360, 2, 0.75, 1
361, 0, 1, 1
362, 0.25, 1, 1
363, 0.5, 1, 1
364, 0.75, 1, 1
365, 1, 1, 1
366, 1.25, 1, 1
367, 1.5, 1, 1
368, 1.75, 1, 1
369, 2, 1, 1
370, 0, 1.25, 1
371, 0.25, 1.25, 1
372, 0.5, 1.25, 1
373, 0.75, 1.25, 1
374, 1, 1.25, 1
375, 1.25, 1.25, 1
376, 1.5, 1.25, 1
377, 1.75, 1.25, 1
378, 2, 1.25, 1
379, 0, 1.5, 1
380, 0.25, 1.5, 1
381, 0.5, 1.5, 1
382, 0.75, 1.5, 1
383, 1, 1.5, 1
384, 1.25, 1.5, 1
385, 1.5, 1.5, 1
386, 1.75, 1.5, 1
387, 2, 1.5, 1
388, 0, 1.75, 1
389, 0.25, 1.75, 1
390, 0.5, 1.75, 1
391, 0.75, 1.75, 1
392, 1, 1.75, 1
393, 1.25, 1.75, 1
394, 1.5, 1.75, 1
395, 1.75, 1.75, 1
396, 2, 1.75, 1
397, 0, 2, 1
398, 0.25, 2, 1
399, 0.5, 2, 1
400, 0.75, 2, 1
401, 1, 2, 1
402, 1.25, 2, 1
403, 1.5, 2, 1
404, 1.75, 2, 1
405, 2, 2, 1
406, 0, 0, 1.25
407, 0.25, 0, 1.25
408, 0.5, 0, 1.25
409, 0.75, 0, 1.25
410, 1, 0, 1.25
411, 1.25, 0, 1.25
412, 1.5, 0, 1.25
413, 1.75, 0, 1.25
414, 2, 0, 1.25
415, 0, 0.25, 1.25
416, 0.25, 0.25, 1.25
417, 0.5, 0.25, 1.25
418, 0.75, 0.25, 1.25
419, 1, 0.25, 1.25
420, 1.25, 0.25, 1.25
421, 1.5, 0.25, 1.25
422, 1.75, 0.25, 1.25
423, 2, 0.25, 1.25
424, 0, 0.5, 1.25
425, 0.25, 0.5, 1.25
426, 0.5, 0.5, 1.25
427, 0.75, 0.5, 1.25
428, 1, 0.5, 1.25
429, 1.25, 0.5, 1.25
430, 1.5, 0.5, 1.25
431, 1.75, 0.5, 1.25
432, 2, 0.5, 1.25
433, 0, 0.75, 1.25
434, 0.25, 0.75, 1.25
435, 0.5, 0.75, 1.25
436, 0.75, 0.75, 1.25
437, 1, 0.75, 1.25
438, 1.25, 0.75, 1.25
439, 1.5, 0.75, 1.25
440, 1.75, 0.75, 1.25
441, 2, 0.75, 1.25
442, 0, 1, 1.25
443, 0.25, 1, 1.25
444, 0.5, 1, 1.25
445, 0.75, 1, 1.25
446, 1, 1, 1.25
447, 1.25, 1, 1.25
448, 1.5, 1, 1.25
449, 1.75, 1, 1.25
450, 2, 1, 1.25
451, 0, 1.25, 1.25
452, 0.25, 1.25, 1.25
453, 0.5, 1.25, 1.25
454, 0.75, 1.25, 1.25
455, 1, 1.25, 1.25
456, 1.25, 1.25, 1.25
457, 1.5, 1.25, 1.25
458, 1.75, 1.25, 1.25
459, 2, 1.25, 1.25
460, 0, 1.5, 1.25
461, 0.25, 1.5, 1.25
462, 0.5, 1.5, 1.25
463, 0.75, 1.5, 1.25
464, 1, 1.5, 1.25
465, 1.25, 1.5, 1.25
466, 1.5, 1.5, 1.25
467, 1.75, 1.5, 1.25
468, 2, 1.5, 1.25
469, 0, 1.75, 1.25
470, 0.25, 1.75, 1.25
471, 0.5, 1.75, 1.25
472, 0.75, 1.75, 1.25
473, 1, 1.75, 1.25
474, 1.25, 1.75, 1.25
475, 1.5, 1.75, 1.25
476, 1.75, 1.75, 1.25
477, 2, 1.75, 1.25
478, 0, 2, 1.25
479, 0.25, 2, 1.25
480, 0.5, 2, 1.25
481, 0.75, 2, 1.25
482, 1, 2, 1.25
483, 1.25, 2, 1.25
484, 1.5, 2, 1.25
485, 1.75, 2, 1.25
486, 2, 2, 1.25
487, 0, 0, 1.5
488, 0.25, 0, 1.5
489, 0.5, 0, 1.5
490, 0.75, 0, 1.5
491, 1, 0, 1.5
492, 1.25, 0, 1.5
493, 1.5, 0, 1.5
494, 1.75, 0, 1.5
495, 2, 0, 1.5
496, 0, 0.25, 1.5
497, 0.25, 0.25, 1.5
498, 0.5, 0.25, 1.5
499, 0.75, 0.25, 1.5
500, 1, 0.25, 1.5
501, 1.25, 0.25, 1.5
502, 1.5, 0.25, 1.5
503, 1.75, 0.25, 1.5
504, 2, 0.25, 1.5
505, 0, 0.5, 1.5
506, 0.25, 0.5, 1.5
507, 0.5, 0.5, 1.5
508, 0.75, 0.5, 1.5
509, 1, 0.5, 1.5
510, 1.25, 0.5, 1.5
511, 1.5, 0.5, 1.5
512, 1.75, 0.5, 1.5
513, 2, 0.5, 1.5
514, 0, 0.75, 1.5
515, 0.25, 0.75, 1.5
516, 0.5, 0.75, 1.5
517, 0.75, 0.75, 1.5
518, 1, 0.75, 1.5
519, 1.25, 0.75, 1.5
520, 1.5, 0.75, 1.5
521, 1.75, 0.75, 1.5
522, 2, 0.75, 1.5
523, 0, 1, 1.5
524, 0.25, 1, 1.5
525, 0.5, 1, 1.5
526, 0.75, 1, 1.5
527, 1, 1, 1.5
528, 1.25, 1, 1.5
529, 1.5, 1, 1.5
530, 1.75, 1, 1.5
531, 2, 1, 1.5
532, 0, 1.25, 1.5
533, 0.25, 1.25, 1.5
534, 0.5, 1.25, 1.5
535, 0.75, 1.25, 1.5
536, 1, 1.25, 1.5
537, 1.25, 1.25, 1.5
538, 1.5, 1.25, 1.5
539, 1.75, 1.25, 1.5
540, 2, 1.25, 1.5
541, 0, 1.5, 1.5
542, 0.25, 1.5, 1.5
543, 0.5, 1.5, 1.5
544, 0.75, 1.5, 1.5
545, 1, 1.5, 1.5
546, 1.25, 1.5, 1.5
547, 1.5, 1.5, 1.5
548, 1.75, 1.5, 1.5
549, 2, 1.5, 1.5
550, 0, 1.75, 1.5
551, 0.25, 1.75, 1.5
552, 0.5, 1.75, 1.5
553, 0.75, 1.75, 1.5
554, 1, 1.75, 1.5
555, 1.25, 1.75, 1.5
556, 1.5, 1.75, 1.5
557, 1.75, 1.75, 1.5
558, 2, 1.75, 1.5
559, 0, 2, 1.5
560, 0.25, 2, 1.5
561, 0.5, 2, 1.5
562, 0.75, 2, 1.5
563, 1, 2, 1.5
564, 1.25, 2, 1.5
565, 1.5, 2, 1.5
566, 1.75, 2, 1.5
567, 2, 2, 1.5
568, 0, 0, 1.75
569, 0.25, 0, 1.75
570, 0.5, 0, 1.75
571, 0.75, 0, 1.75
572, 1, 0, 1.75
573, 1.25, 0, 1.75
574, 1.5, 0, 1.75
575, 1.75, 0, 1.75
576, 2, 0, 1.75
577, 0, 0.25, 1.75
578, 0.25, 0.25, 1.75
579, 0.5, 0.25, 1.75
580, 0.75, 0.25, 1.75
581, 1, 0.25, 1.75
582, 1.25, 0.25, 1.75
583, 1.5, 0.25, 1.75
584, 1.75, 0.25, 1.75
585, 2, 0.25, 1.75
586, 0, 0.5, 1.75
587, 0.25, 0.5, 1.75
588, 0.5, 0.5, 1.75
589, 0.75, 0.5, 1.75
590, 1, 0.5, 1.75
591, 1.25, 0.5, 1.75
592, 1.5, 0.5, 1.75
593, 1.75, 0.5, 1.75
594, 2, 0.5, 1.75
595, 0, 0.75, 1.75
596, 0.25, 0.75, 1.75
597, 0.5, 0.75, 1.75
598, 0.75, 0.75, 1.75
599, 1, 0.75, 1.75
600, 1.25, 0.75, 1.75
601, 1.5, 0.75, 1.75
602, 1.75, 0.75, 1.75
603, 2, 0.75, 1.75
604, 0, 1, 1.75
605, 0.25, 1, 1.75
606, 0.5, 1, 1.75
607, 0.75, 1, 1.75
608, 1, 1, 1.75
609, 1.25, 1, 1.75
610, 1.5, 1, 1.75
611, 1.75, 1, 1.75
612, 2, 1, 1.75
613, 0, 1.25, 1.75
614, 0.25, 1.25, 1.75
615, 0.5, 1.25, 1.75
616, 0.75, 1.25, 1.75
617, 1, 1.25, 1.75
618, 1.25, 1.25, 1.75
619, 1.5, 1.25, 1.75
620, 1.75, 1.25, 1.75
621, 2, 1.25, 1.75
622, 0, 1.5, 1.75
623, 0.25, 1.5, 1.75
624, 0.5, 1.5, 1.75
625, 0.75, 1.5, 1.75
626, 1, 1.5, 1.75
627, 1.25, 1.5, 1.75
628, 1.5, 1.5, 1.75
629, 1.75, 1.5, 1.75
630, 2, 1.5, 1.75
631, 0, 1.75, 1.75
632, 0.25, 1.75, 1.75
633, 0.5, 1.75, 1.75
634, 0.75, 1.75, 1.75
635, 1, 1.75, 1.75
636, 1.25, 1.75, 1.75
637, 1.5, 1.75, 1.75
638, 1.75, 1.75, 1.75
639, 2, 1.75, 1.75
640, 0, 2, 1.75
641, 0.25, 2, 1.75
642, 0.5, 2, 1.75
643, 0.75, 2, 1.75
644, 1, 2, 1.75
645, 1.25, 2, 1.75
646, 1.5, 2, 1.75
647, 1.75, 2, 1.75
648, 2, 2, 1.75
649, 0, 0, 2
650, 0.25, 0, 2
651, 0.5, 0, 2
652, 0.75, 0, 2
653, 1, 0, 2
654, 1.25, 0, 2
655, 1.5, 0, 2
656, 1.75, 0, 2
657, 2, 0, 2
658, 0, 0.25, 2
659, 0.25, 0.25, 2
660, 0.5, 0.25, 2
661, 0.75, 0.25, 2
662, 1, 0.25, 2
663, 1.25, 0.25, 2
664, 1.5, 0.25, 2
665, 1.75, 0.25, 2
666, 2, 0.25, 2
667, 0, 0.5, 2
668, 0.25, 0.5, 2
669, 0.5, 0.5, 2
670, 0.75, 0.5, 2
671, 1, 0.5, 2
672, 1.25, 0.5, 2
673, 1.5, 0.5, 2
674, 1.75, 0.5, 2
675, 2, 0.5, 2
676, 0, 0.75, 2
677, 0.25, 0.75, 2
678, 0.5, 0.75, 2
679, 0.75, 0.75, 2
680, 1, 0.75, 2
681, 1.25, 0.75, 2
682, 1.5, 0.75, 2
683, 1.75, 0.75, 2
684, 2, 0.75, 2
685, 0, 1, 2
686, 0.25, 1, 2
687, 0.5, 1, 2
688, 0.75, 1, 2
689, 1, 1, 2
690, 1.25, 1, 2
691, 1.5, 1, 2
692, 1.75, 1, 2
693, 2, 1, 2
694, 0, 1.25, 2
695, 0.25, 1.25, 2
696, 0.5, 1.25, 2
697, 0.75, 1.25, 2
698, 1, 1.25, 2
699, 1.25, 1.25, 2
700, 1.5, 1.25, 2
701, 1.75, 1.25, 2
702, 2, 1.25, 2
703, 0, 1.5, 2
704, 0.25, 1.5, 2
705, 0.5, 1.5, 2
706, 0.75, 1.5, 2
707, 1, 1.5, 2
708, 1.25, 1.5, 2
709, 1.5, 1.5, 2
710, 1.75, 1.5, 2
711, 2, 1.5, 2
712, 0, 1.75, 2
713, 0.25, 1.75, 2
714, 0.5, 1.75, 2
715, 0.75, 1.75, 2
716, 1, 1.75, 2
717, 1.25, 1.75, 2
718, 1.5, 1.75, 2
719, 1.75, 1.75, 2
720, 2, 1.75, 2
721, 0, 2, 2
722, 0.25, 2, 2
723, 0.5, 2, 2
724, 0.75, 2, 2
725, 1, 2, 2
726, 1.25, 2, 2
727, 1.5, 2, 2
728, 1.75, 2, 2
729, 2, 2, 2
*Element, type=C3D8R, elset=EALL
1, 1, 2, 11, 10, 82, 83, 92, 91
2, 2, 3, 12, 11, 83, 84, 93, 92
3, 3, 4, 13, 12, 84, 85, 94, 93
4, 4, 5, 14, 13, 85, 86, 95, 94
5, 5, 6, 15, 14, 86, 87, 96, 95
6, 6, 7, 16, 15, 87, 88, 97, 96
7, 7, 8, 17, 16, 88, 89, 98, 97
8, 8, 9, 18, 17, 89, 90, 99, 98
9, 10, 11, 20, 19, 91, 92, 101, 100
10, 11, 12, 21, 20, 92, 93, 102, 101
11, 12, 13, 22, 21, 93, 94, 103, 102
12, 13, 14, 23, 22, 94, 95, 104, 103
13, 14, 15, 24, 23, 95, 96, 105, 104
14, 15, 16, 25, 24, 96, 97, 106, 105
15, 16, 17, 26, 25, 97, 98, 107, 106
16, 17, 18, 27, 26, 98, 99, 108, 107
17, 19, 20, 29, 28, 100, 101, 110, 109
18, 20, 21, 30, 29, 101, 102, 111, 110
19, 21, 22, 31, 30, 102, 103, 112, 111
20, 22, 23, 32, 31, 103, 104, 113, 112
21, 23, 24, 33, 32, 104, 105, 114, 113
22, 24, 25, 34, 33, 105, 106, 115, 114
23, 25, 26, 35, 34, 106, 107, 116, 115
24, 26, 27, 36, 35, 107, 108, 117, 116
25, 28, 29, 38, 37, 109, 110, 119, 118
26, 29, 30, 39, 38, 110, 111, 120, 119
27, 30, 31, 40, 39, 111, 112, 121, 120
28, 31, 32, 41, 40, 112, 113, 122, 121
29, 32, 33, 42, 41, 113, 114, 123, 122
30, 33, 34, 43, 42, 114, 115, 124, 123
31, 34, 35, 44, 43, 115, 116, 125, 124
32, 35, 36, 45, 44, 116, 117, 126, 125
33, 37, 38, 47, 46, 118, 119, 128, 127
34, 38, 39, 48, 47, 119, 120, 129, 128
35, 39, 40, 49, 48, 120, 121, 130, 129
36, 40, 41, 50, 49, 121, 122, 131, 130
37, 41, 42, 51, 50, 122, 123, 132, 131
38, 42, 43, 52, 51, 123, 124, 133, 132
39, 43, 44, 53, 52, 124, 125, 134, 133
40, 44, 45, 54, 53, 125, 126, 135, 134
41, 46, 47, 56, 55, 127, 128, 137, 136
42, 47, 48, 57, 56, 128, 129, 138, 137
43, 48, 49, 58, 57, 129, 130, 139, 138
44, 49, 50, 59, 58, 130, 131, 140, 139
45, 50, 51, 60, 59, 131, 132, 141, 140
46, 51, 52, 61, 60, 132, 133, 142, 141
47, 52, 53, 62, 61, 133, 134, 143, 142
48, 53, 54, 63, 62, 134, 135, 144, 143
49, 55, 56, 65, 64, 136, 137, 146, 145
50, 56, 57, 66, 65, 137, 138, 147, 146
51, 57, 58, 67, 66, 138, 139, 148, 147
52, 58, 59, 68, 67, 139, 140, 149, 148
53, 59, 60, 69, 68, 140, 141, 150, 149
54, 60, 61, 70, 69, 141, 142, 151, 150
55, 61, 62, 71, 70, 142, 143, 152, 151
56, 62, 63, 72, 71, 143, 144, 153, 152
57, 64, 65, 74, 73, 145, 146, 155, 154
58, 65, 66, 75, 74, 146, 147, 156, 155
59, 66, 67, 76, 75, 147, 148, 157, 156
60, 67, 68, 77, 76, 148, 149, 158, 157
61, 68, 69, 78, 77, 149, 150, 159, 158
62, 69, 70, 79, 78, 150, 151, 160, 159
63, 70, 71, 80, 79, 151, 152, 161, 160
64, 71, 72, 81, 80, 152, 153, 162, 161
65, 82, 83, 92, 91, 163, 164, 173, 172
66, 83, 84, 93, 92, 164, 165, 174, 173
67, 84, 85, 94, 93, 165, 166, 175, 174
68, 85, 86, 95, 94, 166, 167, 176, 175
69, 86, 87, 96, 95, 167, 168, 177, 176
70, 87, 88, 97, 96, 168, 169, 178, 177
71, 88, 89, 98, 97, 169, 170, 179, 178
72, 89, 90, 99, 98, 170, 171, 180, 179
73, 91, 92, 101, 100, 172, 173, 182, 181
74, 92, 93, 102, 101, 173, 174, 183, 182
75, 93, 94, 103, 102, 174, 175, 184, 183
76, 94, 95, 104, 103, 175, 176, 185, 184
77, 95, 96, 105, 104, 176, 177, 186, 185
78, 96, 97, 106, 105, 177, 178, 187, 186
79, 97, 98, 107, 106, 178, 179, 188, 187
80, 98, 99, 108, 107, 179, 180, 189, 188
81, 100, 101, 110, 109, 181, 182, 191, 190
82, 101, 102, 111, 110, 182, 183, 192, 191
83, 102, 103, 112, 111, 183, 184, 193, 192
84, 103, 104, 113, 112, 184, 185, 194, 193
85, 104, 105, 114, 113, 185, 186, 195, 194
86, 105, 106, 115, 114, 186, 187, 196, 195
87, 106, 107, 116, 115, 187, 188, 197, 196
88, 107, 108, 117, 116, 188, 189, 198, 197
89, 109, 110, 119, 118, 190, 191, 200, 199
90, 110, 111, 120, 119, 191, 192, 201, 200
91, 111, 112, 121, 120, 192, 193, 202, 201
92, 112, 113, 122, 121, 193, 194, 203, 202
93, 113, 114, 123, 122, 194, 195, 204, 203
94, 114, 115, 124, 123, 195, 196, 205, 204
95, 115, 116, 125, 124, 196, 197, 206, 205
96, 116, 117, 126, 125, 197, 198, 207, 206
97, 118, 119, 128, 127, 199, 200, 209, 208
98, 119, 120, 129, 128, 200, 201, 210, 209
99, 120, 121, 130, 129, 201, 202, 211, 210
100, 121, 122, 131, 130, 202, 203, 212, 211
101, 122, 123, 132, 131, 203, 204, 213, 212
102, 123, 124, 133, 132, 204, 205, 214, 213
103, 124, 125, 134, 133, 205, 206, 215, 214
104, 125, 126, 135, 134, 206, 207, 216, 215
105, 127, 128, 137, 136, 208, 209, 218, 217
106, 128, 129, 138, 137, 209, 210, 219, 218
107, 129, 130, 139, 138, 210, 211, 220, 219
108, 130, 131, 140, 139, 211, 212, 221, 220
109, 131, 132, 141, 140, 212, 213, 222, 221
110, 132, 133, 142, 141, 213, 214, 223, 222
111, 133, 134, 143, 142, 214, 215, 224, 223
112, 134, 135, 144, 143, 215, 216, 225, 224
113, 136, 137, 146, 145, 217, 218, 227, 226
114, 137, 138, 147, 146, 218, 219, 228, 227
115, 138, 139, 148, 147, 219, 220, 229, 228
116, 139, 140, 149, 148, 220, 221, 230, 229
117, 140, 141, 150, 149, 221, 222, 231, 230
118, 141, 142, 151, 150, 222, 223, 232, 231
119, 142, 143, 152, 151, 223, 224, 233, 232
120, 143, 144, 153, 152, 224, 225, 234, 233
121, 145, 146, 155, 154, 226, 227, 236, 235
122, 146, 147, 156, 155, 227, 228, 237, 236
123, 147, 148, 157, 156, 228, 229, 238, 237
124, 148, 149, 158, 157, 229, 230, 239, 238
125, 149, 150, 159, 158, 230, 231, 240, 239
126, 150, 151, 160, 159, 231, 232, 241, 240
127, 151, 152, 161, 160, 232, 233, 242, 241
128, 152, 153, 162, 161, 233, 234, 243, 242
129, 163, 164, 173, 172, 244, 245, 254, 253
130, 164, 165, 174, 173, 245, 246, 255, 254
131, 165, 166, 175, 174, 246, 247, 256, 255
132, 166, 167, 176, 175, 247, 248, 257, 256
133, 167, 168, 177, 176, 248, 249, 258, 257
134, 168, 169, 178, 177, 249, 250, 259, 258
135, 169, 170, 179, 178, 250, 251, 260, 259
136, 170, 171, 180, 179, 251, 252, 261, 260
137, 172, 173, 182, 181, 253, 254, 263, 262
138, 173, 174, 183, 182, 254, 255, 264, 263
139, 174, 175, 184, 183, 255, 256, 265, 264
140, 175, 176, 185, 184, 256, 257, 266, 265
141, 176, 177, 186, 185, 257, 258, 267, 266
142, 177, 178, 187, 186, 258, 259, 268, 267
143, 178, 179, 188, 187, 259, 260, 269, 268
144, 179, 180, 189, 188, 260, 261, 270, 269
145, 181, 182, 191, 190, 262, 263, 272, 271
146, 182, 183, 192, 191, 263, 264, 273, 272
147, 183, 184, 193, 192, 264, 265, 274, 273
148, 184, 185, 194, 193, 265, 266, 275, 274
149, 185, 186, 195, 194, 266, 267, 276, 275
150, 186, 187, 196, 195, 267, 268, 277, 276
151, 187, 188, 197, 196, 268, 269, 278, 277
152, 188, 189, 198, 197, 269, 270, 279, 278
153, 190, 191, 200, 199, 271, 272, 281, 280
154, 191, 192, 201, 200, 272, 273, 282, 281
155, 192, 193, 202, 201, 273, 274, 283, 282
156, 193, 194, 203, 202, 274, 275, 284, 283
157, 194, 195, 204, 203, 275, 276, 285, 284
158, 195, 196, 205, 204, 276, 277, 286, 285
159, 196, 197, 206, 205, 277, 278, 287, 286
160, 197, 198, 207, 206, 278, 279, 288, 287
161, 199, 200, 209, 208, 280, 281, 290, 289
162, 200, 201, 210, 209, 281, 282, 291, 290
163, 201, 202, 211, 210, 282, 283, 292, 291
164, 202, 203, 212, 211, 283, 284, 293, 292
165, 203, 204, 213, 212, 284, 285, 294, 293
166, 204, 205, 214, 213, 285, 286, 295, 294
167, 205, 206, 215, 214, 286, 287, 296, 295
168, 206, 207, 216, 215, 287, 288, 297, 296
169, 208, 209, 218, 217, 289, 290, 299, 298
170, 209, 210, 219, 218, 290, 291, 300, 299
171, 210, 211, 220, 219, 291, 292, 301, 300
172, 211, 212, 221, 220, 292, 293, 302, 301
173, 212, 213, 222, 221, 293, 294, 303, 302
174, 213, 214, 223, 222, 294, 295, 304, 303
175, 214, 215, 224, 223, 295, 296, 305, 304
176, 215, 216, 225, 224, 296, 297, 306, 305
177, 217, 218, 227, 226, 298, 299, 308, 307
178, 218, 219, 228, 227, 299, 300, 309, 308
179, 219, 220, 229, 228, 300, 301, 310, 309
180, 220, 221, 230, 229, 301, 302, 311, 310
181, 221, 222, 231, 230, 302, 303, 312, 311
182, 222, 223, 232, 231, 303, 304, 313, 312
183, 223, 224, 233, 232, 304, 305, 314, 313
184, 224, 225, 234, 233, 305, 306, 315, 314
185, 226, 227, 236, 235, 307, 308, 317, 316
186, 227, 228, 237, 236, 308, 309, 318, 317
187, 228, 229, 238, 237, 309, 310, 319, 318
188, 229, 230, 239, 238, 310, 311, 320, 319
189, 230, 231, 240, 239, 311, 312, 321, 320
190, 231, 232, 241, 240, 312, 313, 322, 321
191, 232, 233, 242, 241, 313, 314, 323, 322
192, 233, 234, 243, 242, 314, 315, 324, 323
193, 244, 245, 254, 253, 325, 326, 335, 334
194, 245, 246, 255, 254, 326, 327, 336, 335
195, 246, 247, 256, 255, 327, 328, 337, 336
196, 247, 248, 257, 256, 328, 329, 338, 337
197, 248, 249, 258, 257, 329, 330, 339, 338
198, 249, 250, 259, 258, 330, 331, 340, 339
199, 250, 251, 260, 259, 331, 332, 341, 340
200, 251, 252, 261, 260, 332, 333, 342, 341
201, 253, 254, 263, 262, 334, 335, 344, 343
202, 254, 255, 264, 263, 335, 336, 345, 344
203, 255, 256, 265, 264, 336, 337, 346, 345
204, 256, 257, 266, 265, 337, 338, 347, 346
205, 257, 258, 267, 266, 338, 339, 348, 347
206, 258, 259, 268, 267, 339, 340, 349, 348
207, 259, 260, 269, 268, 340, 341, 350, 349
208, 260, 261, 270, 269, 341, 342, 351, 350
209, 262, 263, 272, 271, 343, 344, 353, 352
210, 263, 264, 273, 272, 344, 345, 354, 353
211, 264, 265, 274, 273, 345, 346, 355, 354
212, 265, 266, 275, 274, 346, 347, 356, 355
213, 266, 267, 276, 275, 347, 348, 357, 356
214, 267, 268, 277, 276, 348, 349, 358, 357
215, 268, 269, 278, 277, 349, 350, 359, 358
216, 269, 270, 279, 278, 350, 351, 360, 359
217, 271, 272, 281, 280, 352, 353, 362, 361
218, 272, 273, 282, 281, 353, 354, 363, 362
219, 273, 274, 283, 282, 354, 355, 364, 363
220, 274, 275, 284, 283, 355, 356, 365, 364
221, 275, 276, 285, 284, 356, 357, 366, 365
222, 276, 277, 286, 285, 357, 358, 367, 366
223, 277, 278, 287, 286, 358, 359, 368, 367
224, 278, 279, 288, 287, 359, 360, 369, 368
225, 280, 281, 290, 289, 361, 362, 371, 370
226, 281, 282, 291, 290, 362, 363, 372, 371
227, 282, 283, 292, 291, 363, 364, 373, 372
228, 283, 284, 293, 292, 364, 365, 374, 373
229, 284, 285, 294, 293, 365, 366, 375, 374
230, 285, 286, 295, 294, 366, 367, 376, 375
231, 286, 287, 296, 295, 367, 368, 377, 376
232, 287, 288, 297, 296, 368, 369, 378, 377
233, 289, 290, 299, 298, 370, 371, 380, 379
234, 290, 291, 300, 299, 371, 372, 381, 380
235, 291, 292, 301, 300, 372, 373, 382, 381
236, 292, 293, 302, 301, 373, 374, 383, 382
237, 293, 294, 303, 302, 374, 375, 384, 383
238, 294, 295, 304, 303, 375, 376, 385, 384
239, 295, 296, 305, 304, 376, 377, 386, 385
240, 296, 297, 306, 305, 377, 378, 387, 386
241, 298, 299, 308, 307, 379, 380, 389, 388
242, 299, 300, 309, 308, 380, 381, 390, 389
243, 300, 301, 310, 309, 381, 382, 391, 390
244, 301, 302, 311, 310, 382, 383, 392, 391
245, 302, 303, 312, 311, 383, 384, 393, 392
246, 303, 304, 313, 312, 384, 385, 394, 393
247, 304, 305, 314, 313, 385, 386, 395, 394
248, 305, 306, 315, 314, 386, 387, 396, 395
249, 307, 308, 317, 316, 388, 389, 398, 397
250, 308, 309, 318, 317, 389, 390, 399, 398
251, 309, 310, 319, 318, 390, 391, 400, 399
252, 310, 311, 320, 319, 391, 392, 401, 400
253, 311, 312, 321, 320, 392, 393, 402, 401
254, 312, 313, 322, 321, 393, 394, 403, 402
255, 313, 314, 323, 322, 394, 395, 404, 403
256, 314, 315, 324, 323, 395, 396, 405, 404
257, 325, 326, 335, 334, 406, 407, 416, 415
258, 326, 327, 336, 335, 407, 408, 417, 416
259, 327, 328, 337, 336, 408, 409, 418, 417
260, 328, 329, 338, 337, 409, 410, 419, 418
261, 329, 330, 339, 338, 410, 411, 420, 419
262, 330, 331, 340, 339, 411, 412, 421, 420
263, 331, 332, 341, 340, 412, 413, 422, 421
264, 332, 333, 342, 341, 413, 414, 423, 422
265, 334, 335, 344, 343, 415, 416, 425, 424
266, 335, 336, 345, 344, 416, 417, 426, 425
267, 336, 337, 346, 345, 417, 418, 427, 426
268, 337, 338, 347, 346, 418, 419, 428, 427
269, 338, 339, 348, 347, 419, 420, 429, 428
270, 339, 340, 349, 348, 420, 421, 430, 429
271, 340, 341, 350, 349, 421, 422, 431, 430
272, 341, 342, 351, 350, 422, 423, 432, 431
273, 343, 344, 353, 352, 424, 425, 434, 433
274, 344, 345, 354, 353, 425, 426, 435, 434
275, 345, 346, 355, 354, 426, 427, 436, 435
276, 346, 347, 356, 355, 427, 428, 437, 436
277, 347, 348, 357, 356, 428, 429, 438, 437
278, 348, 349, 358, 357, 429, 430, 439, 438
279, 349, 350, 359, 358, 430, 431, 440, 439
280, 350, 351, 360, 359, 431, 432, 441, 440
281, 352, 353, 362, 361, 433, 434, 443, 442
282, 353, 354, 363, 362, 434, 435, 444, 443
283, 354, 355, 364, 363, 435, 436, 445, 444
284, 355, 356, 365, 364, 436, 437, 446, 445
285, 356, 357, 366, 365, 437, 438, 447, 446
286, 357, 358, 367, 366, 438, 439, 448, 447
287, 358, 359, 368, 367, 439, 440, 449, 448
288, 359, 360, 369, 368, 440, 441, 450, 449
289, 361, 362, 371, 370, 442, 443, 452, 451
290, 362, 363, 372, 371, 443, 444, 453, 452
291, 363, 364, 373, 372, 444, 445, 454, 453
292, 364, 365, 374, 373, 445, 446, 455, 454
293, 365, 366, 375, 374, 446, 447, 456, 455
294, 366, 367, 376, 375, 447, 448, 457, 456
295, 367, 368, 377, 376, 448, 449, 458, 457
296, 368, 369, 378, 377, 449, 450, 459, 458
297, 370, 371, 380, 379, 451, 452, 461, 460
298, 371, 372, 381, 380, 452, 453, 462, 461
299, 372, 373, 382, 381, 453, 454, 463, 462
300, 373, 374, 383, 382, 454, 455, 464, 463
301, 374, 375, 384, 383, 455, 456, 465, 464
302, 375, 376, 385, 384, 456, 457, 466, 465
303, 376, 377, 386, 385, 457, 458, 467, 466
304, 377, 378, 387, 386, 458, 459, 468, 467
305, 379, 380, 389, 388, 460, 461, 470, 469
306, 380, 381, 390, 389, 461, 462, 471, 470
307, 381, 382, 391, 390, 462, 463, 472, 471
308, 382, 383, 392, 391, 463, 464, 473, 472
309, 383, 384, 393, 392, 464, 465, 474, 473
310, 384, 385, 394, 393, 465, 466, 475, 474
311, 385, 386, 395, 394, 466, 467, 476, 475
312, 386, 387, 396, 395, 467, 468, 477, 476
313, 388, 389, 398, 397, 469, 470, 479, 478
314, 389, 390, 399, 398, 470, 471, 480, 479
315, 390, 391, 400, 399, 471, 472, 481, 480
316, 391, 392, 401, 400, 472, 473, 482, 481
317, 392, 393, 402, 401, 473, 474, 483, 482
318, 393, 394, 403, 402, 474, 475, 484, 483
319, 394, 395, 404, 403, 475, 476, 485, 484
320, 395, 396, 405, 404, 476, 477, 486, 485
321, 406, 407, 416, 415, 487, 488, 497, 496
322, 407, 408, 417, 416, 488, 489, 498, 497
323, 408, 409, 418, 417, 489, 490, 499, 498
324, 409, 410, 419, 418, 490, 491, 500, 499
325, 410, 411, 420, 419, 491, 492, 501, 500
326, 411, 412, 421, 420, 492, 493, 502, 501
327, 412, 413, 422, 421, 493, 494, 503, 502
328, 413, 414, 423, 422, 494, 495, 504, 503
329, 415, 416, 425, 424, 496, 497, 506, 505
330, 416, 417, 426, 425, 497, 498, 507, 506
331, 417, 418, 427, 426, 498, 499, 508, 507
332, 418, 419, 428, 427, 499, 500, 509, 508
333, 419, 420, 429, 428, 500, 501, 510, 509
334, 420, 421, 430, 429, 501, 502, 511, 510
335, 421, 422, 431, 430, 502, 503, 512, 511
336, 422, 423, 432, 431, 503, 504, 513, 512
337, 424, 425, 434, 433, 505, 506, 515, 514
338, 425, 426, 435, 434, 506, 507, 516, 515
339, 426, 427, 436, 435, 507, 508, 517, 516
340, 427, 428, 437, 436, 508, 509, 518, 517
341, 428, 429, 438, 437, 509, 510, 519, 518
342, 429, 430, 439, 438, 510, 511, 520, 519
343, 430, 431, 440, 439, 511, 512, 521, 520
344, 431, 432, 441, 440, 512, 513, 522, 521
345, 433, 434, 443, 442, 514, 515, 524, 523
346, 434, 435, 444, 443, 515, 516, 525, 524
347, 435, 436, 445, 444, 516, 517, 526, 525
348, 436, 437, 446, 445, 517, 518, 527, 526
349, 437, 438, 447, 446, 518, 519, 528, 527
350, 438, 439, 448, 447, 519, 520, 529, 528
351, 439, 440, 449, 448, 520, 521, 530, 529
352, 440, 441, 450, 449, 521, 522, 531, 530
353, 442, 443, 452, 451, 523, 524, 533, 532
354, 443, 444, 453, 452, 524, 525, 534, 533
355, 444, 445, 454, 453, 525, 526, 535, 534
356, 445, 446, 455, 454, 526, 527, 536, 535
357, 446, 447, 456, 455, 527, 528, 537, 536
358, 447, 448, 457, 456, 528, 529, 538, 537
359, 448, 449, 458, 457, 529, 530, 539, 538
360, 449, 450, 459, 458, 530, 531, 540, 539
361, 451, 452, 461, 460, 532, 533, 542, 541
362, 452, 453, 462, 461, 533, 534, 543, 542
363, 453, 454, 463, 462, 534, 535, 544, 543
364, 454, 455, 464, 463, 535, 536, 545, 544
365, 455, 456, 465, 464, 536, 537, 546, 545
366, 456, 457, 466, 465, 537, 538, 547, 546
367, 457, 458, 467, 466, 538, 539, 548, 547
368, 458, 459, 468, 467, 539, 540, 549, 548
369, 460, 461, 470, 469, 541, 542, 551, 550
370, 461, 462, 471, 470, 542, 543, 552, 551
371, 462, 463, 472, 471, 543, 544, 553, 552
372, 463, 464, 473, 472, 544, 545, 554, 553
373, 464, 465, 474, 473, 545, 546, 555, 554
374, 465, 466, 475, 474, 546, 547, 556, 555
375, 466, 467, 476, 475, 547, 548, 557, 556
376, 467, 468, 477, 476, 548, 549, 558, 557
377, 469, 470, 479, 478, 550, 551, 560, 559
378, 470, 471, 480, 479, 551, 552, 561, 560
379, 471, 472, 481, 480, 552, 553, 562, 561
380, 472, 473, 482, 481, 553, 554, 563, 562
381, 473, 474, 483, 482, 554, 555, 564, 563
382, 474, 475, 484, 483, 555, 556, 565, 564
383, 475, 476, 485, 484, 556, 557, 566, 565
384, 476, 477, 486, 485, 557, 558, 567, 566
385, 487, 488, 497, 496, 568, 569, 578, 577
386, 488, 489, 498, 497, 569, 570, 579, 578
387, 489, 490, 499, 498, 570, 571, 580, 579
388, 490, 491, 500, 499, 571, 572, 581, 580
389, 491, 492, 501, 500, 572, 573, 582, 581
390, 492, 493, 502, 501, 573, 574, 583, 582
391, 493, 494, 503, 502, 574, 575, 584, 583
392, 494, 495, 504, 503, 575, 576, 585, 584
393, 496, 497, 506, 505, 577, 578, 587, 586
394, 497, 498, 507, 506, 578, 579, 588, 587
395, 498, 499, 508, 507, 579, 580, 589, 588
396, 499, 500, 509, 508, 580, 581, 590, 589
397, 500, 501, 510, 509, 581, 582, 591, 590
398, 501, 502, 511, 510, 582, 583, 592, 591
399, 502, 503, 512, 511, 583, 584, 593, 592
400, 503, 504, 513, 512, 584, 585, 594, 593
401, 505, 506, 515, 514, 586, 587, 596, 595
402, 506, 507, 516, 515, 587, 588, 597, 596
403, 507, 508, 517, 516, 588, 589, 598, 597
404, 508, 509, 518, 517, 589, 590, 599, 598
405, 509, 510, 519, 518, 590, 591, 600, 599
406, 510, 511, 520, 519, 591, 592, 601, 600
407, 511, 512, 521, 520, 592, 593, 602, 601
408, 512, 513, 522, 521, 593, 594, 603, 602
409, 514, 515, 524, 523, 595, 596, 605, 604
410, 515, 516, 525, 524, 596, 597, 606, 605
411, 516, 517, 526, 525, 597, 598, 607, 606
412, 517, 518, 527, 526, 598, 599, 608, 607
413, 518, 519, 528, 527, 599, 600, 609, 608
414, 519, 520, 529, 528, 600, 601, 610, 609
415, 520, 521, 530, 529, 601, 602, 611, 610
416, 521, 522, 531, 530, 602, 603, 612, 611
417, 523, 524, 533, 532, 604, 605, 614, 613
418, 524, 525, 534, 533, 605, 606, 615, 614
419, 525, 526, 535, 534, 606, 607, 616, 615
420, 526, 527, 536, 535, 607, 608, 617, 616
421, 527, 528, 537, 536, 608, 609, 618, 617
422, 528, 529, 538, 537, 609, 610, 619, 618
423, 529, 530, 539, 538, 610, 611, 620, 619
424, 530, 531, 540, 539, 611, 612, 621, 620
425, 532, 533, 542, 541, 613, 614, 623, 622
426, 533, 534, 543, 542, 614, 615, 624, 623
427, 534, 535, 544, 543, 615, 616, 625, 624
428, 535, 536, 545, 544, 616, 617, 626, 625
429, 536, 537, 546, 545, 617, 618, 627, 626
430, 537, 538, 547, 546, 618, 619, 628, 627
431, 538, 539, 548, 547, 619, 620, 629, 628
432, 539, 540, 549, 548, 620, 621, 630, 629
433, 541, 542, 551, 550, 622, 623, 632, 631
434, 542, 543, 552, 551, 623, 624, 633, 632
435, 543, 544, 553, 552, 624, 625, 634, 633
436, 544, 545, 554, 553, 625, 626, 635, 634
437, 545, 546, 555, 554, 626, 627, 636, 635
438, 546, 547, 556, 555, 627, 628, 637, 636
439, 547, 548, 557, 556, 628, 629, 638, 637
440, 548, 549, 558, 557, 629, 630, 639, 638
441, 550, 551, 560, 559, 631, 632, 641, 640
442, 551, 552, 561, 560, 632, 633, 642, 641
443, 552, 553, 562, 561, 633, 634, 643, 642
444, 553, 554, 563, 562, 634, 635, 644, 643
445, 554, 555, 564, 563, 635, 636, 645, 644
446, 555, 556, 565, 564, 636, 637, 646, 645
447, 556, 557, 566, 565, 637, 638, 647, 646
448, 557, 558, 567, 566, 638, 639, 648, 647
449, 568, 569, 578, 577, 649, 650, 659, 658
450, 569, 570, 579, 578, 650, 651, 660, 659
451, 570, 571, 580, 579, 651, 652, 661, 660
452, 571, 572, 581, 580, 652, 653, 662, 661
453, 572, 573, 582, 581, 653, 654, 663, 662
454, 573, 574, 583, 582, 654, 655, 664, 663
455, 574, 575, 584, 583, 655, 656, 665, 664
456, 575, 576, 585, 584, 656, 657, 666, 665
457, 577, 578, 587, 586, 658, 659, 668, 667
458, 578, 579, 588, 587, 659, 660, 669, 668
459, 579, 580, 589, 588, 660, 661, 670, 669
460, 580, 581, 590, 589, 661, 662, 671, 670
461, 581, 582, 591, 590, 662, 663, 672, 671
462, 582, 583, 592, 591, 663, 664, 673, 672
463, 583, 584, 593, 592, 664, 665, 674, 673
464, 584, 585, 594, 593, 665, 666, 675, 674
465, 586, 587, 596, 595, 667, 668, 677, 676
466, 587, 588, 597, 596, 668, 669, 678, 677
467, 588, 589, 598, 597, 669, 670, 679, 678
468, 589, 590, 599, 598, 670, 671, 680, 679
469, 590, 591, 600, 599, 671, 672, 681, 680
470, 591, 592, 601, 600, 672, 673, 682, 681
471, 592, 593, 602, 601, 673, 674, 683, 682
472, 593, 594, 603, 602, 674, 675, 684, 683
473, 595, 596, 605, 604, 676, 677, 686, 685
474, 596, 597, 606, 605, 677, 678, 687, 686
475, 597, 598, 607, 606, 678, 679, 688, 687
476, 598, 599, 608, 607, 679, 680, 689, 688
477, 599, 600, 609, 608, 680, 681, 690, 689
478, 600, 601, 610, 609, 681, 682, 691, 690
479, 601, 602, 611, 610, 682, 683, 692, 691
480, 602, 603, 612, 611, 683, 684, 693, 692
481, 604, 605, 614, 613, 685, 686, 695, 694
482, 605, 606, 615, 614, 686, 687, 696, 695
483, 606, 607, 616, 615, 687, 688, 697, 696
484, 607, 608, 617, 616, 688, 689, 698, 697
485, 608, 609, 618, 617, 689, 690, 699, 698
486, 609, 610, 619, 618, 690, 691, 700, 699
487, 610, 611, 620, 619, 691, 692, 701, 700
488, 611, 612, 621, 620, 692, 693, 702, 701
489, 613, 614, 623, 622, 694, 695, 704, 703
490, 614, 615, 624, 623, 695, 696, 705, 704
491, 615, 616, 625, 624, 696, 697, 706, 705
492, 616, 617, 626, 625, 697, 698, 707, 706
493, 617, 618, 627, 626, 698, 699, 708, 707
494, 618, 619, 628, 627, 699, 700, 709, 708
495, 619, 620, 629, 628, 700, 701, 710, 709
496, 620, 621, 630, 629, 701, 702, 711, 710
497, 622, 623, 632, 631, 703, 704, 713, 712
498, 623, 624, 633, 632, 704, 705, 714, 713
499, 624, 625, 634, 633, 705, 706, 715, 714
500, 625, 626, 635, 634, 706, 707, 716, 715
501, 626, 627, 636, 635, 707, 708, 717, 716
502, 627, 628, 637, 636, 708, 709, 718, 717
503, 628, 629, 638, 637, 709, 710, 719, 718
504, 629, 630, 639, 638, 710, 711, 720, 719
505, 631, 632, 641, 640, 712, 713, 722, 721
506, 632, 633, 642, 641, 713, 714, 723, 722
507, 633, 634, 643, 642, 714, 715, 724, 723
508, 634, 635, 644, 643, 715, 716, 725, 724
509, 635, 636, 645, 644, 716, 717, 726, 725
510, 636, 637, 646, 645, 717, 718, 727, 726
511, 637, 638, 647, 646, 718, 719, 728, 727
512, 638, 639, 648, 647, 719, 720, 729, 728
*Section Controls, name=HG_UMAT, hourglass=ENHANCED
*Solid Section, elset=EALL, material=PLY_B, controls=HG_UMAT
0.25,
*Material, name=PLY_B
*Depvar
62,
*User Material, constants=30, unsymm
141000 ,11400 ,11400 ,0.28 ,0.28 ,0.28 ,7100 ,7100
7100 ,2080 ,1250 ,60 ,290 ,110 ,110 ,110
133 ,10 ,0.5 ,1.6 ,1 ,0.9 ,0.5 ,0.0001
0.005 ,35 ,0.5 ,1 ,1 ,0
*Step, name=MESH, inc=10000, nlgeom=NO
*Static
0.005, 1., 1e-20, 0.1
*Amplitude, name=RAMP
0., 0.
1., 1.
*Boundary, amplitude=RAMP
1, 1, 1, 0
1, 2, 2, 0
1, 3, 3, 0
2, 1, 1, 0.0011071517365053
2, 2, 2, 1.1925308518457e-09
2, 3, 3, -5.7711265100124e-08
3, 1, 1, 0.0022143034730107
3, 2, 2, 2.3850617036913e-09
3, 3, 3, -1.1542253020025e-07
4, 1, 1, 0.003321455209516
4, 2, 2, 3.577592555537e-09
4, 3, 3, -1.7313379530037e-07
5, 1, 1, 0.0044286069460213
5, 2, 2, 4.7701234073827e-09
5, 3, 3, -2.308450604005e-07
6, 1, 1, 0.0055357586825266
6, 2, 2, 5.9626542592284e-09
6, 3, 3, -2.8855632550062e-07
7, 1, 1, 0.006642910419032
7, 2, 2, 7.155185111074e-09
7, 3, 3, -3.4626759060075e-07
8, 1, 1, 0.0077500621555373
8, 2, 2, 8.3477159629197e-09
8, 3, 3, -4.0397885570087e-07
9, 1, 1, 0.0088572138920426
9, 2, 2, 9.5402468147654e-09
9, 3, 3, -4.6169012080099e-07
10, 1, 1, 1.1925308518457e-09
10, 2, 2, 0.0020285146310925
10, 3, 3, 8.1489553993563e-10
11, 1, 1, 0.0011071529290362
11, 2, 2, 0.0020285158236234
11, 3, 3, -5.6896369560189e-08
12, 1, 1, 0.0022143046655415
12, 2, 2, 0.0020285170161543
12, 3, 3, -1.1460763466031e-07
13, 1, 1, 0.0033214564020468
13, 2, 2, 0.0020285182086851
13, 3, 3, -1.7231889976044e-07
14, 1, 1, 0.0044286081385522
14, 2, 2, 0.002028519401216
14, 3, 3, -2.3003016486056e-07
15, 1, 1, 0.0055357598750575
15, 2, 2, 0.0020285205937468
15, 3, 3, -2.8774142996069e-07
16, 1, 1, 0.0066429116115628
16, 2, 2, 0.0020285217862777
16, 3, 3, -3.4545269506081e-07
17, 1, 1, 0.0077500633480682
17, 2, 2, 0.0020285229788085
17, 3, 3, -4.0316396016093e-07
18, 1, 1, 0.0088572150845735
18, 2, 2, 0.0020285241713394
18, 3, 3, -4.6087522526106e-07
19, 1, 1, 2.3850617036913e-09
19, 2, 2, 0.0040570292621851
19, 3, 3, 1.6297910798713e-09
20, 1, 1, 0.001107154121567
20, 2, 2, 0.0040570304547159
20, 3, 3, -5.6081474020253e-08
21, 1, 1, 0.0022143058580724
21, 2, 2, 0.0040570316472468
21, 3, 3, -1.1379273912038e-07
22, 1, 1, 0.0033214575945777
22, 2, 2, 0.0040570328397777
22, 3, 3, -1.715040042205e-07
23, 1, 1, 0.004428609331083
23, 2, 2, 0.0040570340323085
23, 3, 3, -2.2921526932063e-07
24, 1, 1, 0.0055357610675884
24, 2, 2, 0.0040570352248394
24, 3, 3, -2.8692653442075e-07
25, 1, 1, 0.0066429128040937
25, 2, 2, 0.0040570364173702
25, 3, 3, -3.4463779952087e-07
26, 1, 1, 0.007750064540599
26, 2, 2, 0.0040570376099011
26, 3, 3, -4.02349064621e-07
27, 1, 1, 0.0088572162771043
27, 2, 2, 0.0040570388024319
27, 3, 3, -4.6006032972112e-07
28, 1, 1, 3.577592555537e-09
28, 2, 2, 0.0060855438932776
28, 3, 3, 2.4446866198069e-09
29, 1, 1, 0.0011071553140979
29, 2, 2, 0.0060855450858085
29, 3, 3, -5.5266578480317e-08
30, 1, 1, 0.0022143070506032
30, 2, 2, 0.0060855462783393
30, 3, 3, -1.1297784358044e-07
31, 1, 1, 0.0033214587871085
31, 2, 2, 0.0060855474708702
31, 3, 3, -1.7068910868057e-07
32, 1, 1, 0.0044286105236139
32, 2, 2, 0.0060855486634011
32, 3, 3, -2.2840037378069e-07
33, 1, 1, 0.0055357622601192
33, 2, 2, 0.0060855498559319
33, 3, 3, -2.8611163888081e-07
34, 1, 1, 0.0066429139966245
34, 2, 2, 0.0060855510484628
34, 3, 3, -3.4382290398094e-07
35, 1, 1, 0.0077500657331299
35, 2, 2, 0.0060855522409936
35, 3, 3, -4.0153416908106e-07
36, 1, 1, 0.0088572174696352
36, 2, 2, 0.0060855534335245
36, 3, 3, -4.5924543418119e-07
37, 1, 1, 4.7701234073827e-09
37, 2, 2, 0.0081140585243702
37, 3, 3, 3.2595821597425e-09
38, 1, 1, 0.0011071565066287
38, 2, 2, 0.008114059716901
38, 3, 3, -5.4451682940382e-08
39, 1, 1, 0.0022143082431341
39, 2, 2, 0.0081140609094319
39, 3, 3, -1.1216294804051e-07
40, 1, 1, 0.0033214599796394
40, 2, 2, 0.0081140621019627
40, 3, 3, -1.6987421314063e-07
41, 1, 1, 0.0044286117161447
41, 2, 2, 0.0081140632944936
41, 3, 3, -2.2758547824075e-07
42, 1, 1, 0.0055357634526501
42, 2, 2, 0.0081140644870245
42, 3, 3, -2.8529674334088e-07
43, 1, 1, 0.0066429151891554
43, 2, 2, 0.0081140656795553
43, 3, 3, -3.43008008441e-07
44, 1, 1, 0.0077500669256607
44, 2, 2, 0.0081140668720862
44, 3, 3, -4.0071927354113e-07
45, 1, 1, 0.008857218662166
45, 2, 2, 0.008114068064617
45, 3, 3, -4.5843053864125e-07
46, 1, 1, 5.9626542592284e-09
46, 2, 2, 0.010142573155463
46, 3, 3, 4.0744776996782e-09
47, 1, 1, 0.0011071576991596
47, 2, 2, 0.010142574347994
47, 3, 3, -5.3636787400446e-08
48, 1, 1, 0.0022143094356649
48, 2, 2, 0.010142575540524
48, 3, 3, -1.1134805250057e-07
49, 1, 1, 0.0033214611721702
49, 2, 2, 0.010142576733055
49, 3, 3, -1.6905931760069e-07
50, 1, 1, 0.0044286129086756
50, 2, 2, 0.010142577925586
50, 3, 3, -2.2677058270082e-07
51, 1, 1, 0.0055357646451809
51, 2, 2, 0.010142579118117
51, 3, 3, -2.8448184780094e-07
52, 1, 1, 0.0066429163816862
52, 2, 2, 0.010142580310648
52, 3, 3, -3.4219311290107e-07
53, 1, 1, 0.0077500681181916
53, 2, 2, 0.010142581503179
53, 3, 3, -3.9990437800119e-07
54, 1, 1, 0.0088572198546969
54, 2, 2, 0.01014258269571
54, 3, 3, -4.5761564310132e-07
55, 1, 1, 7.155185111074e-09
55, 2, 2, 0.012171087786555
55, 3, 3, 4.8893732396138e-09
56, 1, 1, 0.0011071588916904
56, 2, 2, 0.012171088979086
56, 3, 3, -5.2821891860511e-08
57, 1, 1, 0.0022143106281958
57, 2, 2, 0.012171090171617
57, 3, 3, -1.1053315696063e-07
58, 1, 1, 0.0033214623647011
58, 2, 2, 0.012171091364148
58, 3, 3, -1.6824442206076e-07
59, 1, 1, 0.0044286141012064
59, 2, 2, 0.012171092556679
59, 3, 3, -2.2595568716088e-07
60, 1, 1, 0.0055357658377118
60, 2, 2, 0.01217109374921
60, 3, 3, -2.8366695226101e-07
61, 1, 1, 0.0066429175742171
61, 2, 2, 0.01217109494174
61, 3, 3, -3.4137821736113e-07
62, 1, 1, 0.0077500693107224
62, 2, 2, 0.012171096134271
62, 3, 3, -3.9908948246126e-07
63, 1, 1, 0.0088572210472277
63, 2, 2, 0.012171097326802
63, 3, 3, -4.5680074756138e-07
64, 1, 1, 8.3477159629197e-09
64, 2, 2, 0.014199602417648
64, 3, 3, 5.7042687795494e-09
65, 1, 1, 0.0011071600842213
65, 2, 2, 0.014199603610179
65, 3, 3, -5.2006996320575e-08
66, 1, 1, 0.0022143118207266
66, 2, 2, 0.01419960480271
66, 3, 3, -1.097182614207e-07
67, 1, 1, 0.003321463557232
67, 2, 2, 0.01419960599524
67, 3, 3, -1.6742952652082e-07
68, 1, 1, 0.0044286152937373
68, 2, 2, 0.014199607187771
68, 3, 3, -2.2514079162095e-07
69, 1, 1, 0.0055357670302426
69, 2, 2, 0.014199608380302
69, 3, 3, -2.8285205672107e-07
70, 1, 1, 0.0066429187667479
70, 2, 2, 0.014199609572833
70, 3, 3, -3.405633218212e-07
71, 1, 1, 0.0077500705032533
71, 2, 2, 0.014199610765364
71, 3, 3, -3.9827458692132e-07
72, 1, 1, 0.0088572222397586
72, 2, 2, 0.014199611957895
72, 3, 3, -4.5598585202145e-07
73, 1, 1, 9.5402468147654e-09
73, 2, 2, 0.01622811704874
73, 3, 3, 6.5191643194851e-09
74, 1, 1, 0.0011071612767521
74, 2, 2, 0.016228118241271
74, 3, 3, -5.1192100780639e-08
75, 1, 1, 0.0022143130132575
75, 2, 2, 0.016228119433802
75, 3, 3, -1.0890336588076e-07
76, 1, 1, 0.0033214647497628
76, 2, 2, 0.016228120626333
76, 3, 3, -1.6661463098089e-07
77, 1, 1, 0.0044286164862681
77, 2, 2, 0.016228121818864
77, 3, 3, -2.2432589608101e-07
78, 1, 1, 0.0055357682227735
78, 2, 2, 0.016228123011395
78, 3, 3, -2.8203716118114e-07
79, 1, 1, 0.0066429199592788
79, 2, 2, 0.016228124203925
79, 3, 3, -3.3974842628126e-07
80, 1, 1, 0.0077500716957841
80, 2, 2, 0.016228125396456
80, 3, 3, -3.9745969138139e-07
81, 1, 1, 0.0088572234322895
81, 2, 2, 0.016228126588987
81, 3, 3, -4.5517095648151e-07
82, 1, 1, -5.7711265100124e-08
82, 2, 2, 8.1489553993563e-10
82, 3, 3, -0.0096397493034601
83, 1, 1, 0.0011070940252402
83, 2, 2, 2.0074263917813e-09
83, 3, 3, -0.0096398070147252
84, 1, 1, 0.0022142457617456
84, 2, 2, 3.199957243627e-09
84, 3, 3, -0.0096398647259903
85, 1, 1, 0.0033213974982509
85, 2, 2, 4.3924880954727e-09
85, 3, 3, -0.0096399224372554
86, 1, 1, 0.0044285492347562
86, 2, 2, 5.5850189473183e-09
86, 3, 3, -0.0096399801485205
87, 1, 1, 0.0055357009712615
87, 2, 2, 6.777549799164e-09
87, 3, 3, -0.0096400378597856
88, 1, 1, 0.0066428527077669
88, 2, 2, 7.9700806510097e-09
88, 3, 3, -0.0096400955710507
89, 1, 1, 0.0077500044442722
89, 2, 2, 9.1626115028554e-09
89, 3, 3, -0.0096401532823158
90, 1, 1, 0.0088571561807775
90, 2, 2, 1.0355142354701e-08
90, 3, 3, -0.0096402109935809
91, 1, 1, -5.6518734248279e-08
91, 2, 2, 0.0020285154459881
91, 3, 3, -0.0096397484885646
92, 1, 1, 0.0011070952177711
92, 2, 2, 0.0020285166385189
92, 3, 3, -0.0096398061998297
93, 1, 1, 0.0022142469542764
93, 2, 2, 0.0020285178310498
93, 3, 3, -0.0096398639110948
94, 1, 1, 0.0033213986907817
94, 2, 2, 0.0020285190235806
94, 3, 3, -0.0096399216223599
95, 1, 1, 0.0044285504272871
95, 2, 2, 0.0020285202161115
95, 3, 3, -0.009639979333625
96, 1, 1, 0.0055357021637924
96, 2, 2, 0.0020285214086423
96, 3, 3, -0.0096400370448901
97, 1, 1, 0.0066428539002977
97, 2, 2, 0.0020285226011732
97, 3, 3, -0.0096400947561552
98, 1, 1, 0.0077500056368031
98, 2, 2, 0.0020285237937041
98, 3, 3, -0.0096401524674203
99, 1, 1, 0.0088571573733084
99, 2, 2, 0.0020285249862349
99, 3, 3, -0.0096402101786854
100, 1, 1, -5.5326203396433e-08
100, 2, 2, 0.0040570300770806
100, 3, 3, -0.009639747673669
101, 1, 1, 0.0011070964103019
101, 2, 2, 0.0040570312696115
101, 3, 3, -0.0096398053849341
102, 1, 1, 0.0022142481468073
102, 2, 2, 0.0040570324621423
102, 3, 3, -0.0096398630961992
103, 1, 1, 0.0033213998833126
103, 2, 2, 0.0040570336546732
103, 3, 3, -0.0096399208074643
104, 1, 1, 0.0044285516198179
104, 2, 2, 0.004057034847204
104, 3, 3, -0.0096399785187294
105, 1, 1, 0.0055357033563233
105, 2, 2, 0.0040570360397349
105, 3, 3, -0.0096400362299945
106, 1, 1, 0.0066428550928286
106, 2, 2, 0.0040570372322657
106, 3, 3, -0.0096400939412596
107, 1, 1, 0.0077500068293339
107, 2, 2, 0.0040570384247966
107, 3, 3, -0.0096401516525247
108, 1, 1, 0.0088571585658392
108, 2, 2, 0.0040570396173275
108, 3, 3, -0.0096402093637898
109, 1, 1, -5.4133672544587e-08
109, 2, 2, 0.0060855447081732
109, 3, 3, -0.0096397468587735
110, 1, 1, 0.0011070976028328
110, 2, 2, 0.006085545900704
110, 3, 3, -0.0096398045700386
111, 1, 1, 0.0022142493393381
111, 2, 2, 0.0060855470932349
111, 3, 3, -0.0096398622813037
112, 1, 1, 0.0033214010758434
112, 2, 2, 0.0060855482857657
112, 3, 3, -0.0096399199925688
113, 1, 1, 0.0044285528123488
113, 2, 2, 0.0060855494782966
113, 3, 3, -0.0096399777038339
114, 1, 1, 0.0055357045488541
114, 2, 2, 0.0060855506708274
114, 3, 3, -0.009640035415099
115, 1, 1, 0.0066428562853594
115, 2, 2, 0.0060855518633583
115, 3, 3, -0.0096400931263641
116, 1, 1, 0.0077500080218648
116, 2, 2, 0.0060855530558891
116, 3, 3, -0.0096401508376292
117, 1, 1, 0.0088571597583701
117, 2, 2, 0.00608555424842
117, 3, 3, -0.0096402085488943
118, 1, 1, -5.2941141692742e-08
118, 2, 2, 0.0081140593392657
118, 3, 3, -0.009639746043878
119, 1, 1, 0.0011070987953636
119, 2, 2, 0.0081140605317966
119, 3, 3, -0.0096398037551431
120, 1, 1, 0.002214250531869
120, 2, 2, 0.0081140617243274
120, 3, 3, -0.0096398614664082
121, 1, 1, 0.0033214022683743
121, 2, 2, 0.0081140629168583
121, 3, 3, -0.0096399191776733
122, 1, 1, 0.0044285540048796
122, 2, 2, 0.0081140641093891
122, 3, 3, -0.0096399768889384
123, 1, 1, 0.005535705741385
123, 2, 2, 0.00811406530192
123, 3, 3, -0.0096400346002035
124, 1, 1, 0.0066428574778903
124, 2, 2, 0.0081140664944508
124, 3, 3, -0.0096400923114686
125, 1, 1, 0.0077500092143956
125, 2, 2, 0.0081140676869817
125, 3, 3, -0.0096401500227337
126, 1, 1, 0.0088571609509009
126, 2, 2, 0.0081140688795125
126, 3, 3, -0.0096402077339988
127, 1, 1, -5.1748610840896e-08
127, 2, 2, 0.010142573970358
127, 3, 3, -0.0096397452289824
128, 1, 1, 0.0011070999878945
128, 2, 2, 0.010142575162889
128, 3, 3, -0.0096398029402475
129, 1, 1, 0.0022142517243998
129, 2, 2, 0.01014257635542
129, 3, 3, -0.0096398606515126
130, 1, 1, 0.0033214034609051
130, 2, 2, 0.010142577547951
130, 3, 3, -0.0096399183627777
131, 1, 1, 0.0044285551974105
131, 2, 2, 0.010142578740482
131, 3, 3, -0.0096399760740428
132, 1, 1, 0.0055357069339158
132, 2, 2, 0.010142579933013
132, 3, 3, -0.0096400337853079
133, 1, 1, 0.0066428586704211
133, 2, 2, 0.010142581125543
133, 3, 3, -0.009640091496573
134, 1, 1, 0.0077500104069265
134, 2, 2, 0.010142582318074
134, 3, 3, -0.0096401492078381
135, 1, 1, 0.0088571621434318
135, 2, 2, 0.010142583510605
135, 3, 3, -0.0096402069191032
136, 1, 1, -5.055607998905e-08
136, 2, 2, 0.012171088601451
136, 3, 3, -0.0096397444140869
137, 1, 1, 0.0011071011804253
137, 2, 2, 0.012171089793982
137, 3, 3, -0.009639802125352
138, 1, 1, 0.0022142529169307
138, 2, 2, 0.012171090986513
138, 3, 3, -0.0096398598366171
139, 1, 1, 0.003321404653436
139, 2, 2, 0.012171092179043
139, 3, 3, -0.0096399175478822
140, 1, 1, 0.0044285563899413
140, 2, 2, 0.012171093371574
140, 3, 3, -0.0096399752591473
141, 1, 1, 0.0055357081264467
141, 2, 2, 0.012171094564105
141, 3, 3, -0.0096400329704124
142, 1, 1, 0.006642859862952
142, 2, 2, 0.012171095756636
142, 3, 3, -0.0096400906816775
143, 1, 1, 0.0077500115994573
143, 2, 2, 0.012171096949167
143, 3, 3, -0.0096401483929426
144, 1, 1, 0.0088571633359626
144, 2, 2, 0.012171098141698
144, 3, 3, -0.0096402061042077
145, 1, 1, -4.9363549137205e-08
145, 2, 2, 0.014199603232543
145, 3, 3, -0.0096397435991913
146, 1, 1, 0.0011071023729562
146, 2, 2, 0.014199604425074
146, 3, 3, -0.0096398013104564
147, 1, 1, 0.0022142541094615
147, 2, 2, 0.014199605617605
147, 3, 3, -0.0096398590217215
148, 1, 1, 0.0033214058459669
148, 2, 2, 0.014199606810136
148, 3, 3, -0.0096399167329866
149, 1, 1, 0.0044285575824722
149, 2, 2, 0.014199608002667
149, 3, 3, -0.0096399744442517
150, 1, 1, 0.0055357093189775
150, 2, 2, 0.014199609195198
150, 3, 3, -0.0096400321555168
151, 1, 1, 0.0066428610554828
151, 2, 2, 0.014199610387728
151, 3, 3, -0.0096400898667819
152, 1, 1, 0.0077500127919882
152, 2, 2, 0.014199611580259
152, 3, 3, -0.009640147578047
153, 1, 1, 0.0088571645284935
153, 2, 2, 0.01419961277279
153, 3, 3, -0.0096402052893121
154, 1, 1, -4.8171018285359e-08
154, 2, 2, 0.016228117863636
154, 3, 3, -0.0096397427842958
155, 1, 1, 0.001107103565487
155, 2, 2, 0.016228119056167
155, 3, 3, -0.0096398004955609
156, 1, 1, 0.0022142553019924
156, 2, 2, 0.016228120248698
156, 3, 3, -0.009639858206826
157, 1, 1, 0.0033214070384977
157, 2, 2, 0.016228121441228
157, 3, 3, -0.0096399159180911
158, 1, 1, 0.004428558775003
158, 2, 2, 0.016228122633759
158, 3, 3, -0.0096399736293562
159, 1, 1, 0.0055357105115084
159, 2, 2, 0.01622812382629
159, 3, 3, -0.0096400313406213
160, 1, 1, 0.0066428622480137
160, 2, 2, 0.016228125018821
160, 3, 3, -0.0096400890518864
161, 1, 1, 0.007750013984519
161, 2, 2, 0.016228126211352
161, 3, 3, -0.0096401467631515
162, 1, 1, 0.0088571657210244
162, 2, 2, 0.016228127403883
162, 3, 3, -0.0096402044744166
163, 1, 1, -1.1542253020025e-07
163, 2, 2, 1.6297910798713e-09
163, 3, 3, -0.01927949860692
164, 1, 1, 0.0011070363139751
164, 2, 2, 2.8223219317169e-09
164, 3, 3, -0.019279556318185
165, 1, 1, 0.0022141880504805
165, 2, 2, 4.0148527835626e-09
165, 3, 3, -0.01927961402945
166, 1, 1, 0.0033213397869858
166, 2, 2, 5.2073836354083e-09
166, 3, 3, -0.019279671740716
167, 1, 1, 0.0044284915234911
167, 2, 2, 6.399914487254e-09
167, 3, 3, -0.019279729451981
168, 1, 1, 0.0055356432599964
168, 2, 2, 7.5924453390996e-09
168, 3, 3, -0.019279787163246
169, 1, 1, 0.0066427949965018
169, 2, 2, 8.7849761909453e-09
169, 3, 3, -0.019279844874511
170, 1, 1, 0.0077499467330071
170, 2, 2, 9.977507042791e-09
170, 3, 3, -0.019279902585776
171, 1, 1, 0.0088570984695124
171, 2, 2, 1.1170037894637e-08
171, 3, 3, -0.019279960297041
172, 1, 1, -1.142299993484e-07
172, 2, 2, 0.0020285162608836
172, 3, 3, -0.019279497792025
173, 1, 1, 0.001107037506506
173, 2, 2, 0.0020285174534145
173, 3, 3, -0.01927955550329
174, 1, 1, 0.0022141892430113
174, 2, 2, 0.0020285186459453
174, 3, 3, -0.019279613214555
175, 1, 1, 0.0033213409795166
175, 2, 2, 0.0020285198384762
175, 3, 3, -0.01927967092582
176, 1, 1, 0.004428492716022
176, 2, 2, 0.002028521031007
176, 3, 3, -0.019279728637085
177, 1, 1, 0.0055356444525273
177, 2, 2, 0.0020285222235379
177, 3, 3, -0.01927978634835
178, 1, 1, 0.0066427961890326
178, 2, 2, 0.0020285234160687
178, 3, 3, -0.019279844059615
179, 1, 1, 0.007749947925538
179, 2, 2, 0.0020285246085996
179, 3, 3, -0.01927990177088
180, 1, 1, 0.0088570996620433
180, 2, 2, 0.0020285258011304
180, 3, 3, -0.019279959482146
181, 1, 1, -1.1303746849656e-07
181, 2, 2, 0.0040570308919762
181, 3, 3, -0.019279496977129
182, 1, 1, 0.0011070386990368
182, 2, 2, 0.004057032084507
182, 3, 3, -0.019279554688394
183, 1, 1, 0.0022141904355422
183, 2, 2, 0.0040570332770379
183, 3, 3, -0.019279612399659
184, 1, 1, 0.0033213421720475
184, 2, 2, 0.0040570344695687
184, 3, 3, -0.019279670110924
185, 1, 1, 0.0044284939085528
185, 2, 2, 0.0040570356620996
185, 3, 3, -0.01927972782219
186, 1, 1, 0.0055356456450582
186, 2, 2, 0.0040570368546304
186, 3, 3, -0.019279785533455
187, 1, 1, 0.0066427973815635
187, 2, 2, 0.0040570380471613
187, 3, 3, -0.01927984324472
188, 1, 1, 0.0077499491180688
188, 2, 2, 0.0040570392396921
188, 3, 3, -0.019279900955985
189, 1, 1, 0.0088571008545741
189, 2, 2, 0.004057040432223
189, 3, 3, -0.01927995866725
190, 1, 1, -1.1184493764471e-07
190, 2, 2, 0.0060855455230687
190, 3, 3, -0.019279496162234
191, 1, 1, 0.0011070398915677
191, 2, 2, 0.0060855467155996
191, 3, 3, -0.019279553873499
192, 1, 1, 0.002214191628073
192, 2, 2, 0.0060855479081304
192, 3, 3, -0.019279611584764
193, 1, 1, 0.0033213433645783
193, 2, 2, 0.0060855491006613
193, 3, 3, -0.019279669296029
194, 1, 1, 0.0044284951010837
194, 2, 2, 0.0060855502931921
194, 3, 3, -0.019279727007294
195, 1, 1, 0.005535646837589
195, 2, 2, 0.006085551485723
195, 3, 3, -0.019279784718559
196, 1, 1, 0.0066427985740943
196, 2, 2, 0.0060855526782538
196, 3, 3, -0.019279842429824
197, 1, 1, 0.0077499503105997
197, 2, 2, 0.0060855538707847
197, 3, 3, -0.019279900141089
198, 1, 1, 0.008857102047105
198, 2, 2, 0.0060855550633155
198, 3, 3, -0.019279957852354
199, 1, 1, -1.1065240679287e-07
199, 2, 2, 0.0081140601541613
199, 3, 3, -0.019279495347338
200, 1, 1, 0.0011070410840985
200, 2, 2, 0.0081140613466921
200, 3, 3, -0.019279553058603
201, 1, 1, 0.0022141928206039
201, 2, 2, 0.008114062539223
201, 3, 3, -0.019279610769868
202, 1, 1, 0.0033213445571092
202, 2, 2, 0.0081140637317538
202, 3, 3, -0.019279668481133
203, 1, 1, 0.0044284962936145
203, 2, 2, 0.0081140649242847
203, 3, 3, -0.019279726192398
204, 1, 1, 0.0055356480301199
204, 2, 2, 0.0081140661168155
204, 3, 3, -0.019279783903664
205, 1, 1, 0.0066427997666252
205, 2, 2, 0.0081140673093464
205, 3, 3, -0.019279841614929
206, 1, 1, 0.0077499515031305
206, 2, 2, 0.0081140685018772
206, 3, 3, -0.019279899326194
207, 1, 1, 0.0088571032396358
207, 2, 2, 0.0081140696944081
207, 3, 3, -0.019279957037459
208, 1, 1, -1.0945987594102e-07
208, 2, 2, 0.010142574785254
208, 3, 3, -0.019279494532443
209, 1, 1, 0.0011070422766294
209, 2, 2, 0.010142575977785
209, 3, 3, -0.019279552243708
210, 1, 1, 0.0022141940131347
210, 2, 2, 0.010142577170316
210, 3, 3, -0.019279609954973
211, 1, 1, 0.00332134574964
211, 2, 2, 0.010142578362846
211, 3, 3, -0.019279667666238
212, 1, 1, 0.0044284974861454
212, 2, 2, 0.010142579555377
212, 3, 3, -0.019279725377503
213, 1, 1, 0.0055356492226507
213, 2, 2, 0.010142580747908
213, 3, 3, -0.019279783088768
214, 1, 1, 0.006642800959156
214, 2, 2, 0.010142581940439
214, 3, 3, -0.019279840800033
215, 1, 1, 0.0077499526956614
215, 2, 2, 0.01014258313297
215, 3, 3, -0.019279898511298
216, 1, 1, 0.0088571044321667
216, 2, 2, 0.010142584325501
216, 3, 3, -0.019279956222563
217, 1, 1, -1.0826734508917e-07
217, 2, 2, 0.012171089416346
217, 3, 3, -0.019279493717547
218, 1, 1, 0.0011070434691602
218, 2, 2, 0.012171090608877
218, 3, 3, -0.019279551428812
219, 1, 1, 0.0022141952056656
219, 2, 2, 0.012171091801408
219, 3, 3, -0.019279609140077
220, 1, 1, 0.0033213469421709
220, 2, 2, 0.012171092993939
220, 3, 3, -0.019279666851342
221, 1, 1, 0.0044284986786762
221, 2, 2, 0.01217109418647
221, 3, 3, -0.019279724562607
222, 1, 1, 0.0055356504151816
222, 2, 2, 0.012171095379001
222, 3, 3, -0.019279782273873
223, 1, 1, 0.0066428021516869
223, 2, 2, 0.012171096571531
223, 3, 3, -0.019279839985138
224, 1, 1, 0.0077499538881922
224, 2, 2, 0.012171097764062
224, 3, 3, -0.019279897696403
225, 1, 1, 0.0088571056246975
225, 2, 2, 0.012171098956593
225, 3, 3, -0.019279955407668
226, 1, 1, -1.0707481423733e-07
226, 2, 2, 0.014199604047439
226, 3, 3, -0.019279492902651
227, 1, 1, 0.0011070446616911
227, 2, 2, 0.01419960523997
227, 3, 3, -0.019279550613917
228, 1, 1, 0.0022141963981964
228, 2, 2, 0.014199606432501
228, 3, 3, -0.019279608325182
229, 1, 1, 0.0033213481347018
229, 2, 2, 0.014199607625031
229, 3, 3, -0.019279666036447
230, 1, 1, 0.0044284998712071
230, 2, 2, 0.014199608817562
230, 3, 3, -0.019279723747712
231, 1, 1, 0.0055356516077124
231, 2, 2, 0.014199610010093
231, 3, 3, -0.019279781458977
232, 1, 1, 0.0066428033442177
232, 2, 2, 0.014199611202624
232, 3, 3, -0.019279839170242
233, 1, 1, 0.0077499550807231
233, 2, 2, 0.014199612395155
233, 3, 3, -0.019279896881507
234, 1, 1, 0.0088571068172284
234, 2, 2, 0.014199613587686
234, 3, 3, -0.019279954592772
235, 1, 1, -1.0588228338548e-07
235, 2, 2, 0.016228118678531
235, 3, 3, -0.019279492087756
236, 1, 1, 0.0011070458542219
236, 2, 2, 0.016228119871062
236, 3, 3, -0.019279549799021
237, 1, 1, 0.0022141975907273
237, 2, 2, 0.016228121063593
237, 3, 3, -0.019279607510286
238, 1, 1, 0.0033213493272326
238, 2, 2, 0.016228122256124
238, 3, 3, -0.019279665221551
239, 1, 1, 0.0044285010637379
239, 2, 2, 0.016228123448655
239, 3, 3, -0.019279722932816
240, 1, 1, 0.0055356528002433
240, 2, 2, 0.016228124641186
240, 3, 3, -0.019279780644081
241, 1, 1, 0.0066428045367486
241, 2, 2, 0.016228125833717
241, 3, 3, -0.019279838355347
242, 1, 1, 0.0077499562732539
242, 2, 2, 0.016228127026247
242, 3, 3, -0.019279896066612
243, 1, 1, 0.0088571080097593
243, 2, 2, 0.016228128218778
243, 3, 3, -0.019279953777877
244, 1, 1, -1.7313379530037e-07
244, 2, 2, 2.4446866198069e-09
244, 3, 3, -0.02891924791038
245, 1, 1, 0.00110697860271
245, 2, 2, 3.6372174716526e-09
245, 3, 3, -0.028919305621645
246, 1, 1, 0.0022141303392154
246, 2, 2, 4.8297483234983e-09
246, 3, 3, -0.028919363332911
247, 1, 1, 0.0033212820757207
247, 2, 2, 6.0222791753439e-09
247, 3, 3, -0.028919421044176
248, 1, 1, 0.004428433812226
248, 2, 2, 7.2148100271896e-09
248, 3, 3, -0.028919478755441
249, 1, 1, 0.0055355855487313
249, 2, 2, 8.4073408790353e-09
249, 3, 3, -0.028919536466706
250, 1, 1, 0.0066427372852367
250, 2, 2, 9.5998717308809e-09
250, 3, 3, -0.028919594177971
251, 1, 1, 0.007749889021742
251, 2, 2, 1.0792402582727e-08
251, 3, 3, -0.028919651889236
252, 1, 1, 0.0088570407582473
252, 2, 2, 1.1984933434572e-08
252, 3, 3, -0.028919709600501
253, 1, 1, -1.7194126444853e-07
253, 2, 2, 0.0020285170757792
253, 3, 3, -0.028919247095485
254, 1, 1, 0.0011069797952409
254, 2, 2, 0.00202851826831
254, 3, 3, -0.02891930480675
255, 1, 1, 0.0022141315317462
255, 2, 2, 0.0020285194608409
255, 3, 3, -0.028919362518015
256, 1, 1, 0.0033212832682515
256, 2, 2, 0.0020285206533717
256, 3, 3, -0.02891942022928
257, 1, 1, 0.0044284350047569
257, 2, 2, 0.0020285218459026
257, 3, 3, -0.028919477940545
258, 1, 1, 0.0055355867412622
258, 2, 2, 0.0020285230384334
258, 3, 3, -0.02891953565181
259, 1, 1, 0.0066427384777675
259, 2, 2, 0.0020285242309643
259, 3, 3, -0.028919593363075
260, 1, 1, 0.0077498902142729
260, 2, 2, 0.0020285254234951
260, 3, 3, -0.028919651074341
261, 1, 1, 0.0088570419507782
261, 2, 2, 0.002028526616026
261, 3, 3, -0.028919708785606
262, 1, 1, -1.7074873359668e-07
262, 2, 2, 0.0040570317068717
262, 3, 3, -0.028919246280589
263, 1, 1, 0.0011069809877717
263, 2, 2, 0.0040570328994026
263, 3, 3, -0.028919303991854
264, 1, 1, 0.0022141327242771
264, 2, 2, 0.0040570340919334
264, 3, 3, -0.028919361703119
265, 1, 1, 0.0033212844607824
265, 2, 2, 0.0040570352844643
265, 3, 3, -0.028919419414385
266, 1, 1, 0.0044284361972877
266, 2, 2, 0.0040570364769951
266, 3, 3, -0.02891947712565
267, 1, 1, 0.0055355879337931
267, 2, 2, 0.004057037669526
267, 3, 3, -0.028919534836915
268, 1, 1, 0.0066427396702984
268, 2, 2, 0.0040570388620568
268, 3, 3, -0.02891959254818
269, 1, 1, 0.0077498914068037
269, 2, 2, 0.0040570400545877
269, 3, 3, -0.028919650259445
270, 1, 1, 0.008857043143309
270, 2, 2, 0.0040570412471185
270, 3, 3, -0.02891970797071
271, 1, 1, -1.6955620274484e-07
271, 2, 2, 0.0060855463379643
271, 3, 3, -0.028919245465694
272, 1, 1, 0.0011069821803026
272, 2, 2, 0.0060855475304951
272, 3, 3, -0.028919303176959
273, 1, 1, 0.0022141339168079
273, 2, 2, 0.006085548723026
273, 3, 3, -0.028919360888224
274, 1, 1, 0.0033212856533132
274, 2, 2, 0.0060855499155568
274, 3, 3, -0.028919418599489
275, 1, 1, 0.0044284373898186
275, 2, 2, 0.0060855511080877
275, 3, 3, -0.028919476310754
276, 1, 1, 0.0055355891263239
276, 2, 2, 0.0060855523006185
276, 3, 3, -0.028919534022019
277, 1, 1, 0.0066427408628292
277, 2, 2, 0.0060855534931494
277, 3, 3, -0.028919591733284
278, 1, 1, 0.0077498925993346
278, 2, 2, 0.0060855546856802
278, 3, 3, -0.028919649444549
279, 1, 1, 0.0088570443358399
279, 2, 2, 0.0060855558782111
279, 3, 3, -0.028919707155815
280, 1, 1, -1.6836367189299e-07
280, 2, 2, 0.0081140609690568
280, 3, 3, -0.028919244650798
281, 1, 1, 0.0011069833728334
281, 2, 2, 0.0081140621615877
281, 3, 3, -0.028919302362063
282, 1, 1, 0.0022141351093388
282, 2, 2, 0.0081140633541185
282, 3, 3, -0.028919360073328
283, 1, 1, 0.0033212868458441
283, 2, 2, 0.0081140645466494
283, 3, 3, -0.028919417784594
284, 1, 1, 0.0044284385823494
284, 2, 2, 0.0081140657391802
284, 3, 3, -0.028919475495859
285, 1, 1, 0.0055355903188548
285, 2, 2, 0.0081140669317111
285, 3, 3, -0.028919533207124
286, 1, 1, 0.0066427420553601
286, 2, 2, 0.0081140681242419
286, 3, 3, -0.028919590918389
287, 1, 1, 0.0077498937918654
287, 2, 2, 0.0081140693167728
287, 3, 3, -0.028919648629654
288, 1, 1, 0.0088570455283707
288, 2, 2, 0.0081140705093036
288, 3, 3, -0.028919706340919
289, 1, 1, -1.6717114104114e-07
289, 2, 2, 0.010142575600149
289, 3, 3, -0.028919243835903
290, 1, 1, 0.0011069845653643
290, 2, 2, 0.01014257679268
290, 3, 3, -0.028919301547168
291, 1, 1, 0.0022141363018696
291, 2, 2, 0.010142577985211
291, 3, 3, -0.028919359258433
292, 1, 1, 0.0033212880383749
292, 2, 2, 0.010142579177742
292, 3, 3, -0.028919416969698
293, 1, 1, 0.0044284397748803
293, 2, 2, 0.010142580370273
293, 3, 3, -0.028919474680963
294, 1, 1, 0.0055355915113856
294, 2, 2, 0.010142581562804
294, 3, 3, -0.028919532392228
295, 1, 1, 0.0066427432478909
295, 2, 2, 0.010142582755334
295, 3, 3, -0.028919590103493
296, 1, 1, 0.0077498949843963
296, 2, 2, 0.010142583947865
296, 3, 3, -0.028919647814758
297, 1, 1, 0.0088570467209016
297, 2, 2, 0.010142585140396
297, 3, 3, -0.028919705526023
298, 1, 1, -1.659786101893e-07
298, 2, 2, 0.012171090231242
298, 3, 3, -0.028919243021007
299, 1, 1, 0.0011069857578951
299, 2, 2, 0.012171091423773
299, 3, 3, -0.028919300732272
300, 1, 1, 0.0022141374944005
300, 2, 2, 0.012171092616304
300, 3, 3, -0.028919358443537
301, 1, 1, 0.0033212892309058
301, 2, 2, 0.012171093808834
301, 3, 3, -0.028919416154802
302, 1, 1, 0.0044284409674111
302, 2, 2, 0.012171095001365
302, 3, 3, -0.028919473866068
303, 1, 1, 0.0055355927039165
303, 2, 2, 0.012171096193896
303, 3, 3, -0.028919531577333
304, 1, 1, 0.0066427444404218
304, 2, 2, 0.012171097386427
304, 3, 3, -0.028919589288598
305, 1, 1, 0.0077498961769271
305, 2, 2, 0.012171098578958
305, 3, 3, -0.028919646999863
306, 1, 1, 0.0088570479134324
306, 2, 2, 0.012171099771489
306, 3, 3, -0.028919704711128
307, 1, 1, -1.6478607933745e-07
307, 2, 2, 0.014199604862334
307, 3, 3, -0.028919242206112
308, 1, 1, 0.001106986950426
308, 2, 2, 0.014199606054865
308, 3, 3, -0.028919299917377
309, 1, 1, 0.0022141386869313
309, 2, 2, 0.014199607247396
309, 3, 3, -0.028919357628642
310, 1, 1, 0.0033212904234367
310, 2, 2, 0.014199608439927
310, 3, 3, -0.028919415339907
311, 1, 1, 0.004428442159942
311, 2, 2, 0.014199609632458
311, 3, 3, -0.028919473051172
312, 1, 1, 0.0055355938964473
312, 2, 2, 0.014199610824989
312, 3, 3, -0.028919530762437
313, 1, 1, 0.0066427456329526
313, 2, 2, 0.01419961201752
313, 3, 3, -0.028919588473702
314, 1, 1, 0.007749897369458
314, 2, 2, 0.01419961321005
314, 3, 3, -0.028919646184967
315, 1, 1, 0.0088570491059633
315, 2, 2, 0.014199614402581
315, 3, 3, -0.028919703896232
316, 1, 1, -1.6359354848561e-07
316, 2, 2, 0.016228119493427
316, 3, 3, -0.028919241391216
317, 1, 1, 0.0011069881429568
317, 2, 2, 0.016228120685958
317, 3, 3, -0.028919299102481
318, 1, 1, 0.0022141398794622
318, 2, 2, 0.016228121878489
318, 3, 3, -0.028919356813746
319, 1, 1, 0.0033212916159675
319, 2, 2, 0.01622812307102
319, 3, 3, -0.028919414525011
320, 1, 1, 0.0044284433524728
320, 2, 2, 0.01622812426355
320, 3, 3, -0.028919472236276
321, 1, 1, 0.0055355950889782
321, 2, 2, 0.016228125456081
321, 3, 3, -0.028919529947542
322, 1, 1, 0.0066427468254835
322, 2, 2, 0.016228126648612
322, 3, 3, -0.028919587658807
323, 1, 1, 0.0077498985619888
323, 2, 2, 0.016228127841143
323, 3, 3, -0.028919645370072
324, 1, 1, 0.0088570502984942
324, 2, 2, 0.016228129033674
324, 3, 3, -0.028919703081337
325, 1, 1, -2.308450604005e-07
325, 2, 2, 3.2595821597425e-09
325, 3, 3, -0.03855899721384
326, 1, 1, 0.0011069208914449
326, 2, 2, 4.4521130115882e-09
326, 3, 3, -0.038559054925106
327, 1, 1, 0.0022140726279503
327, 2, 2, 5.6446438634339e-09
327, 3, 3, -0.038559112636371
328, 1, 1, 0.0033212243644556
328, 2, 2, 6.8371747152796e-09
328, 3, 3, -0.038559170347636
329, 1, 1, 0.0044283761009609
329, 2, 2, 8.0297055671252e-09
329, 3, 3, -0.038559228058901
330, 1, 1, 0.0055355278374662
330, 2, 2, 9.2222364189709e-09
330, 3, 3, -0.038559285770166
331, 1, 1, 0.0066426795739716
331, 2, 2, 1.0414767270817e-08
331, 3, 3, -0.038559343481431
332, 1, 1, 0.0077498313104769
332, 2, 2, 1.1607298122662e-08
332, 3, 3, -0.038559401192696
333, 1, 1, 0.0088569830469822
333, 2, 2, 1.2799828974508e-08
333, 3, 3, -0.038559458903961
334, 1, 1, -2.2965252954865e-07
334, 2, 2, 0.0020285178906747
334, 3, 3, -0.038558996398945
335, 1, 1, 0.0011069220839758
335, 2, 2, 0.0020285190832056
335, 3, 3, -0.03855905411021
336, 1, 1, 0.0022140738204811
336, 2, 2, 0.0020285202757364
336, 3, 3, -0.038559111821475
337, 1, 1, 0.0033212255569864
337, 2, 2, 0.0020285214682673
337, 3, 3, -0.03855916953274
338, 1, 1, 0.0044283772934918
338, 2, 2, 0.0020285226607981
338, 3, 3, -0.038559227244005
339, 1, 1, 0.0055355290299971
339, 2, 2, 0.002028523853329
339, 3, 3, -0.03855928495527
340, 1, 1, 0.0066426807665024
340, 2, 2, 0.0020285250458598
340, 3, 3, -0.038559342666536
341, 1, 1, 0.0077498325030078
341, 2, 2, 0.0020285262383907
341, 3, 3, -0.038559400377801
342, 1, 1, 0.0088569842395131
342, 2, 2, 0.0020285274309215
342, 3, 3, -0.038559458089066
343, 1, 1, -2.2845999869681e-07
343, 2, 2, 0.0040570325217673
343, 3, 3, -0.038558995584049
344, 1, 1, 0.0011069232765066
344, 2, 2, 0.0040570337142981
344, 3, 3, -0.038559053295315
345, 1, 1, 0.002214075013012
345, 2, 2, 0.004057034906829
345, 3, 3, -0.03855911100658
346, 1, 1, 0.0033212267495173
346, 2, 2, 0.0040570360993598
346, 3, 3, -0.038559168717845
347, 1, 1, 0.0044283784860226
347, 2, 2, 0.0040570372918907
347, 3, 3, -0.03855922642911
348, 1, 1, 0.005535530222528
348, 2, 2, 0.0040570384844215
348, 3, 3, -0.038559284140375
349, 1, 1, 0.0066426819590333
349, 2, 2, 0.0040570396769524
349, 3, 3, -0.03855934185164
350, 1, 1, 0.0077498336955386
350, 2, 2, 0.0040570408694832
350, 3, 3, -0.038559399562905
351, 1, 1, 0.0088569854320439
351, 2, 2, 0.0040570420620141
351, 3, 3, -0.03855945727417
352, 1, 1, -2.2726746784496e-07
352, 2, 2, 0.0060855471528598
352, 3, 3, -0.038558994769154
353, 1, 1, 0.0011069244690375
353, 2, 2, 0.0060855483453907
353, 3, 3, -0.038559052480419
354, 1, 1, 0.0022140762055428
354, 2, 2, 0.0060855495379215
354, 3, 3, -0.038559110191684
355, 1, 1, 0.0033212279420481
355, 2, 2, 0.0060855507304524
355, 3, 3, -0.038559167902949
356, 1, 1, 0.0044283796785535
356, 2, 2, 0.0060855519229832
356, 3, 3, -0.038559225614214
357, 1, 1, 0.0055355314150588
357, 2, 2, 0.0060855531155141
357, 3, 3, -0.038559283325479
358, 1, 1, 0.0066426831515641
358, 2, 2, 0.0060855543080449
358, 3, 3, -0.038559341036744
359, 1, 1, 0.0077498348880695
359, 2, 2, 0.0060855555005758
359, 3, 3, -0.03855939874801
360, 1, 1, 0.0088569866245748
360, 2, 2, 0.0060855566931066
360, 3, 3, -0.038559456459275
361, 1, 1, -2.2607493699311e-07
361, 2, 2, 0.0081140617839524
361, 3, 3, -0.038558993954258
362, 1, 1, 0.0011069256615683
362, 2, 2, 0.0081140629764832
362, 3, 3, -0.038559051665523
363, 1, 1, 0.0022140773980737
363, 2, 2, 0.0081140641690141
363, 3, 3, -0.038559109376789
364, 1, 1, 0.003321229134579
364, 2, 2, 0.0081140653615449
364, 3, 3, -0.038559167088054
365, 1, 1, 0.0044283808710843
365, 2, 2, 0.0081140665540758
365, 3, 3, -0.038559224799319
366, 1, 1, 0.0055355326075897
366, 2, 2, 0.0081140677466066
366, 3, 3, -0.038559282510584
367, 1, 1, 0.006642684344095
367, 2, 2, 0.0081140689391375
367, 3, 3, -0.038559340221849
368, 1, 1, 0.0077498360806003
368, 2, 2, 0.0081140701316683
368, 3, 3, -0.038559397933114
369, 1, 1, 0.0088569878171056
369, 2, 2, 0.0081140713241992
369, 3, 3, -0.038559455644379
370, 1, 1, -2.2488240614127e-07
370, 2, 2, 0.010142576415045
370, 3, 3, -0.038558993139363
371, 1, 1, 0.0011069268540992
371, 2, 2, 0.010142577607576
371, 3, 3, -0.038559050850628
372, 1, 1, 0.0022140785906045
372, 2, 2, 0.010142578800107
372, 3, 3, -0.038559108561893
373, 1, 1, 0.0033212303271098
373, 2, 2, 0.010142579992637
373, 3, 3, -0.038559166273158
374, 1, 1, 0.0044283820636152
374, 2, 2, 0.010142581185168
374, 3, 3, -0.038559223984423
375, 1, 1, 0.0055355338001205
375, 2, 2, 0.010142582377699
375, 3, 3, -0.038559281695688
376, 1, 1, 0.0066426855366258
376, 2, 2, 0.01014258357023
376, 3, 3, -0.038559339406953
377, 1, 1, 0.0077498372731312
377, 2, 2, 0.010142584762761
377, 3, 3, -0.038559397118218
378, 1, 1, 0.0088569890096365
378, 2, 2, 0.010142585955292
378, 3, 3, -0.038559454829484
379, 1, 1, -2.2368987528942e-07
379, 2, 2, 0.012171091046137
379, 3, 3, -0.038558992324467
380, 1, 1, 0.00110692804663
380, 2, 2, 0.012171092238668
380, 3, 3, -0.038559050035732
381, 1, 1, 0.0022140797831354
381, 2, 2, 0.012171093431199
381, 3, 3, -0.038559107746997
382, 1, 1, 0.0033212315196407
382, 2, 2, 0.01217109462373
382, 3, 3, -0.038559165458263
383, 1, 1, 0.004428383256146
383, 2, 2, 0.012171095816261
383, 3, 3, -0.038559223169528
384, 1, 1, 0.0055355349926514
384, 2, 2, 0.012171097008792
384, 3, 3, -0.038559280880793
385, 1, 1, 0.0066426867291567
385, 2, 2, 0.012171098201323
385, 3, 3, -0.038559338592058
386, 1, 1, 0.007749838465662
386, 2, 2, 0.012171099393853
386, 3, 3, -0.038559396303323
387, 1, 1, 0.0088569902021673
387, 2, 2, 0.012171100586384
387, 3, 3, -0.038559454014588
388, 1, 1, -2.2249734443758e-07
388, 2, 2, 0.01419960567723
388, 3, 3, -0.038558991509572
389, 1, 1, 0.0011069292391609
389, 2, 2, 0.014199606869761
389, 3, 3, -0.038559049220837
390, 1, 1, 0.0022140809756662
390, 2, 2, 0.014199608062292
390, 3, 3, -0.038559106932102
391, 1, 1, 0.0033212327121716
391, 2, 2, 0.014199609254823
391, 3, 3, -0.038559164643367
392, 1, 1, 0.0044283844486769
392, 2, 2, 0.014199610447353
392, 3, 3, -0.038559222354632
393, 1, 1, 0.0055355361851822
393, 2, 2, 0.014199611639884
393, 3, 3, -0.038559280065897
394, 1, 1, 0.0066426879216875
394, 2, 2, 0.014199612832415
394, 3, 3, -0.038559337777162
395, 1, 1, 0.0077498396581929
395, 2, 2, 0.014199614024946
395, 3, 3, -0.038559395488427
396, 1, 1, 0.0088569913946982
396, 2, 2, 0.014199615217477
396, 3, 3, -0.038559453199693
397, 1, 1, -2.2130481358573e-07
397, 2, 2, 0.016228120308323
397, 3, 3, -0.038558990694676
398, 1, 1, 0.0011069304316917
398, 2, 2, 0.016228121500853
398, 3, 3, -0.038559048405941
399, 1, 1, 0.0022140821681971
399, 2, 2, 0.016228122693384
399, 3, 3, -0.038559106117206
400, 1, 1, 0.0033212339047024
400, 2, 2, 0.016228123885915
400, 3, 3, -0.038559163828471
401, 1, 1, 0.0044283856412077
401, 2, 2, 0.016228125078446
401, 3, 3, -0.038559221539737
402, 1, 1, 0.0055355373777131
402, 2, 2, 0.016228126270977
402, 3, 3, -0.038559279251002
403, 1, 1, 0.0066426891142184
403, 2, 2, 0.016228127463508
403, 3, 3, -0.038559336962267
404, 1, 1, 0.0077498408507237
404, 2, 2, 0.016228128656039
404, 3, 3, -0.038559394673532
405, 1, 1, 0.0088569925872291
405, 2, 2, 0.016228129848569
405, 3, 3, -0.038559452384797
406, 1, 1, -2.8855632550062e-07
406, 2, 2, 4.0744776996782e-09
406, 3, 3, -0.048198746517301
407, 1, 1, 0.0011068631801798
407, 2, 2, 5.2670085515238e-09
407, 3, 3, -0.048198804228566
408, 1, 1, 0.0022140149166852
408, 2, 2, 6.4595394033695e-09
408, 3, 3, -0.048198861939831
409, 1, 1, 0.0033211666531905
409, 2, 2, 7.6520702552152e-09
409, 3, 3, -0.048198919651096
410, 1, 1, 0.0044283183896958
410, 2, 2, 8.8446011070609e-09
410, 3, 3, -0.048198977362361
411, 1, 1, 0.0055354701262011
411, 2, 2, 1.0037131958907e-08
411, 3, 3, -0.048199035073626
412, 1, 1, 0.0066426218627065
412, 2, 2, 1.1229662810752e-08
412, 3, 3, -0.048199092784891
413, 1, 1, 0.0077497735992118
413, 2, 2, 1.2422193662598e-08
413, 3, 3, -0.048199150496156
414, 1, 1, 0.0088569253357171
414, 2, 2, 1.3614724514444e-08
414, 3, 3, -0.048199208207421
415, 1, 1, -2.8736379464878e-07
415, 2, 2, 0.0020285187055702
415, 3, 3, -0.048198745702405
416, 1, 1, 0.0011068643727107
416, 2, 2, 0.0020285198981011
416, 3, 3, -0.04819880341367
417, 1, 1, 0.002214016109216
417, 2, 2, 0.002028521090632
417, 3, 3, -0.048198861124935
418, 1, 1, 0.0033211678457213
418, 2, 2, 0.0020285222831628
418, 3, 3, -0.0481989188362
419, 1, 1, 0.0044283195822267
419, 2, 2, 0.0020285234756937
419, 3, 3, -0.048198976547465
420, 1, 1, 0.005535471318732
420, 2, 2, 0.0020285246682245
420, 3, 3, -0.048199034258731
421, 1, 1, 0.0066426230552373
421, 2, 2, 0.0020285258607554
421, 3, 3, -0.048199091969996
422, 1, 1, 0.0077497747917427
422, 2, 2, 0.0020285270532862
422, 3, 3, -0.048199149681261
423, 1, 1, 0.008856926528248
423, 2, 2, 0.0020285282458171
423, 3, 3, -0.048199207392526
424, 1, 1, -2.8617126379693e-07
424, 2, 2, 0.0040570333366628
424, 3, 3, -0.04819874488751
425, 1, 1, 0.0011068655652415
425, 2, 2, 0.0040570345291936
425, 3, 3, -0.048198802598775
426, 1, 1, 0.0022140173017469
426, 2, 2, 0.0040570357217245
426, 3, 3, -0.04819886031004
427, 1, 1, 0.0033211690382522
427, 2, 2, 0.0040570369142554
427, 3, 3, -0.048198918021305
428, 1, 1, 0.0044283207747575
428, 2, 2, 0.0040570381067862
428, 3, 3, -0.04819897573257
429, 1, 1, 0.0055354725112629
429, 2, 2, 0.0040570392993171
429, 3, 3, -0.048199033443835
430, 1, 1, 0.0066426242477682
430, 2, 2, 0.0040570404918479
430, 3, 3, -0.0481990911551
431, 1, 1, 0.0077497759842735
431, 2, 2, 0.0040570416843788
431, 3, 3, -0.048199148866365
432, 1, 1, 0.0088569277207788
432, 2, 2, 0.0040570428769096
432, 3, 3, -0.04819920657763
433, 1, 1, -2.8497873294508e-07
433, 2, 2, 0.0060855479677553
433, 3, 3, -0.048198744072614
434, 1, 1, 0.0011068667577724
434, 2, 2, 0.0060855491602862
434, 3, 3, -0.048198801783879
435, 1, 1, 0.0022140184942777
435, 2, 2, 0.006085550352817
435, 3, 3, -0.048198859495144
436, 1, 1, 0.003321170230783
436, 2, 2, 0.0060855515453479
436, 3, 3, -0.048198917206409
437, 1, 1, 0.0044283219672884
437, 2, 2, 0.0060855527378788
437, 3, 3, -0.048198974917674
438, 1, 1, 0.0055354737037937
438, 2, 2, 0.0060855539304096
438, 3, 3, -0.048199032628939
439, 1, 1, 0.006642625440299
439, 2, 2, 0.0060855551229405
439, 3, 3, -0.048199090340205
440, 1, 1, 0.0077497771768044
440, 2, 2, 0.0060855563154713
440, 3, 3, -0.04819914805147
441, 1, 1, 0.0088569289133097
441, 2, 2, 0.0060855575080022
441, 3, 3, -0.048199205762735
442, 1, 1, -2.8378620209324e-07
442, 2, 2, 0.0081140625988479
442, 3, 3, -0.048198743257718
443, 1, 1, 0.0011068679503032
443, 2, 2, 0.0081140637913787
443, 3, 3, -0.048198800968984
444, 1, 1, 0.0022140196868086
444, 2, 2, 0.0081140649839096
444, 3, 3, -0.048198858680249
445, 1, 1, 0.0033211714233139
445, 2, 2, 0.0081140661764404
445, 3, 3, -0.048198916391514
446, 1, 1, 0.0044283231598192
446, 2, 2, 0.0081140673689713
446, 3, 3, -0.048198974102779
447, 1, 1, 0.0055354748963246
447, 2, 2, 0.0081140685615022
447, 3, 3, -0.048199031814044
448, 1, 1, 0.0066426266328299
448, 2, 2, 0.008114069754033
448, 3, 3, -0.048199089525309
449, 1, 1, 0.0077497783693352
449, 2, 2, 0.0081140709465639
449, 3, 3, -0.048199147236574
450, 1, 1, 0.0088569301058405
450, 2, 2, 0.0081140721390947
450, 3, 3, -0.048199204947839
451, 1, 1, -2.8259367124139e-07
451, 2, 2, 0.01014257722994
451, 3, 3, -0.048198742442823
452, 1, 1, 0.0011068691428341
452, 2, 2, 0.010142578422471
452, 3, 3, -0.048198800154088
453, 1, 1, 0.0022140208793394
453, 2, 2, 0.010142579615002
453, 3, 3, -0.048198857865353
454, 1, 1, 0.0033211726158447
454, 2, 2, 0.010142580807533
454, 3, 3, -0.048198915576618
455, 1, 1, 0.0044283243523501
455, 2, 2, 0.010142582000064
455, 3, 3, -0.048198973287883
456, 1, 1, 0.0055354760888554
456, 2, 2, 0.010142583192595
456, 3, 3, -0.048199030999148
457, 1, 1, 0.0066426278253607
457, 2, 2, 0.010142584385126
457, 3, 3, -0.048199088710414
458, 1, 1, 0.0077497795618661
458, 2, 2, 0.010142585577656
458, 3, 3, -0.048199146421679
459, 1, 1, 0.0088569312983714
459, 2, 2, 0.010142586770187
459, 3, 3, -0.048199204132944
460, 1, 1, -2.8140114038955e-07
460, 2, 2, 0.012171091861033
460, 3, 3, -0.048198741627927
461, 1, 1, 0.0011068703353649
461, 2, 2, 0.012171093053564
461, 3, 3, -0.048198799339192
462, 1, 1, 0.0022140220718703
462, 2, 2, 0.012171094246095
462, 3, 3, -0.048198857050458
463, 1, 1, 0.0033211738083756
463, 2, 2, 0.012171095438626
463, 3, 3, -0.048198914761723
464, 1, 1, 0.0044283255448809
464, 2, 2, 0.012171096631156
464, 3, 3, -0.048198972472988
465, 1, 1, 0.0055354772813863
465, 2, 2, 0.012171097823687
465, 3, 3, -0.048199030184253
466, 1, 1, 0.0066426290178916
466, 2, 2, 0.012171099016218
466, 3, 3, -0.048199087895518
467, 1, 1, 0.0077497807543969
467, 2, 2, 0.012171100208749
467, 3, 3, -0.048199145606783
468, 1, 1, 0.0088569324909022
468, 2, 2, 0.01217110140128
468, 3, 3, -0.048199203318048
469, 1, 1, -2.802086095377e-07
469, 2, 2, 0.014199606492126
469, 3, 3, -0.048198740813032
470, 1, 1, 0.0011068715278958
470, 2, 2, 0.014199607684656
470, 3, 3, -0.048198798524297
471, 1, 1, 0.0022140232644011
471, 2, 2, 0.014199608877187
471, 3, 3, -0.048198856235562
472, 1, 1, 0.0033211750009065
472, 2, 2, 0.014199610069718
472, 3, 3, -0.048198913946827
473, 1, 1, 0.0044283267374118
473, 2, 2, 0.014199611262249
473, 3, 3, -0.048198971658092
474, 1, 1, 0.0055354784739171
474, 2, 2, 0.01419961245478
474, 3, 3, -0.048199029369357
475, 1, 1, 0.0066426302104224
475, 2, 2, 0.014199613647311
475, 3, 3, -0.048199087080622
476, 1, 1, 0.0077497819469278
476, 2, 2, 0.014199614839842
476, 3, 3, -0.048199144791888
477, 1, 1, 0.0088569336834331
477, 2, 2, 0.014199616032372
477, 3, 3, -0.048199202503153
478, 1, 1, -2.7901607868586e-07
478, 2, 2, 0.016228121123218
478, 3, 3, -0.048198739998136
479, 1, 1, 0.0011068727204266
479, 2, 2, 0.016228122315749
479, 3, 3, -0.048198797709401
480, 1, 1, 0.002214024456932
480, 2, 2, 0.01622812350828
480, 3, 3, -0.048198855420666
481, 1, 1, 0.0033211761934373
481, 2, 2, 0.016228124700811
481, 3, 3, -0.048198913131932
482, 1, 1, 0.0044283279299426
482, 2, 2, 0.016228125893341
482, 3, 3, -0.048198970843197
483, 1, 1, 0.005535479666448
483, 2, 2, 0.016228127085872
483, 3, 3, -0.048199028554462
484, 1, 1, 0.0066426314029533
484, 2, 2, 0.016228128278403
484, 3, 3, -0.048199086265727
485, 1, 1, 0.0077497831394586
485, 2, 2, 0.016228129470934
485, 3, 3, -0.048199143976992
486, 1, 1, 0.008856934875964
486, 2, 2, 0.016228130663465
486, 3, 3, -0.048199201688257
487, 1, 1, -3.4626759060075e-07
487, 2, 2, 4.8893732396138e-09
487, 3, 3, -0.057838495820761
488, 1, 1, 0.0011068054689147
488, 2, 2, 6.0819040914595e-09
488, 3, 3, -0.057838553532026
489, 1, 1, 0.0022139572054201
489, 2, 2, 7.2744349433052e-09
489, 3, 3, -0.057838611243291
490, 1, 1, 0.0033211089419254
490, 2, 2, 8.4669657951508e-09
490, 3, 3, -0.057838668954556
491, 1, 1, 0.0044282606784307
491, 2, 2, 9.6594966469965e-09
491, 3, 3, -0.057838726665821
492, 1, 1, 0.005535412414936
492, 2, 2, 1.0852027498842e-08
492, 3, 3, -0.057838784377086
493, 1, 1, 0.0066425641514414
493, 2, 2, 1.2044558350688e-08
493, 3, 3, -0.057838842088351
494, 1, 1, 0.0077497158879467
494, 2, 2, 1.3237089202534e-08
494, 3, 3, -0.057838899799616
495, 1, 1, 0.008856867624452
495, 2, 2, 1.4429620054379e-08
495, 3, 3, -0.057838957510882
496, 1, 1, -3.450750597489e-07
496, 2, 2, 0.0020285195204658
496, 3, 3, -0.057838495005865
497, 1, 1, 0.0011068066614456
497, 2, 2, 0.0020285207129966
497, 3, 3, -0.05783855271713
498, 1, 1, 0.0022139583979509
498, 2, 2, 0.0020285219055275
498, 3, 3, -0.057838610428395
499, 1, 1, 0.0033211101344562
499, 2, 2, 0.0020285230980583
499, 3, 3, -0.05783866813966
500, 1, 1, 0.0044282618709616
500, 2, 2, 0.0020285242905892
500, 3, 3, -0.057838725850926
501, 1, 1, 0.0055354136074669
501, 2, 2, 0.00202852548312
501, 3, 3, -0.057838783562191
502, 1, 1, 0.0066425653439722
502, 2, 2, 0.0020285266756509
502, 3, 3, -0.057838841273456
503, 1, 1, 0.0077497170804776
503, 2, 2, 0.0020285278681818
503, 3, 3, -0.057838898984721
504, 1, 1, 0.0088568688169829
504, 2, 2, 0.0020285290607126
504, 3, 3, -0.057838956695986
505, 1, 1, -3.4388252889705e-07
505, 2, 2, 0.0040570341515583
505, 3, 3, -0.05783849419097
506, 1, 1, 0.0011068078539764
506, 2, 2, 0.0040570353440892
506, 3, 3, -0.057838551902235
507, 1, 1, 0.0022139595904818
507, 2, 2, 0.00405703653662
507, 3, 3, -0.0578386096135
508, 1, 1, 0.0033211113269871
508, 2, 2, 0.0040570377291509
508, 3, 3, -0.057838667324765
509, 1, 1, 0.0044282630634924
509, 2, 2, 0.0040570389216817
509, 3, 3, -0.05783872503603
510, 1, 1, 0.0055354147999978
510, 2, 2, 0.0040570401142126
510, 3, 3, -0.057838782747295
511, 1, 1, 0.0066425665365031
511, 2, 2, 0.0040570413067434
511, 3, 3, -0.05783884045856
512, 1, 1, 0.0077497182730084
512, 2, 2, 0.0040570424992743
512, 3, 3, -0.057838898169825
513, 1, 1, 0.0088568700095137
513, 2, 2, 0.0040570436918052
513, 3, 3, -0.05783895588109
514, 1, 1, -3.4268999804521e-07
514, 2, 2, 0.0060855487826509
514, 3, 3, -0.057838493376074
515, 1, 1, 0.0011068090465073
515, 2, 2, 0.0060855499751817
515, 3, 3, -0.057838551087339
516, 1, 1, 0.0022139607830126
516, 2, 2, 0.0060855511677126
516, 3, 3, -0.057838608798604
517, 1, 1, 0.0033211125195179
517, 2, 2, 0.0060855523602434
517, 3, 3, -0.057838666509869
518, 1, 1, 0.0044282642560233
518, 2, 2, 0.0060855535527743
518, 3, 3, -0.057838724221135
519, 1, 1, 0.0055354159925286
519, 2, 2, 0.0060855547453051
519, 3, 3, -0.0578387819324
520, 1, 1, 0.0066425677290339
520, 2, 2, 0.006085555937836
520, 3, 3, -0.057838839643665
521, 1, 1, 0.0077497194655393
521, 2, 2, 0.0060855571303668
521, 3, 3, -0.05783889735493
522, 1, 1, 0.0088568712020446
522, 2, 2, 0.0060855583228977
522, 3, 3, -0.057838955066195
523, 1, 1, -3.4149746719336e-07
523, 2, 2, 0.0081140634137434
523, 3, 3, -0.057838492561179
524, 1, 1, 0.0011068102390381
524, 2, 2, 0.0081140646062743
524, 3, 3, -0.057838550272444
525, 1, 1, 0.0022139619755435
525, 2, 2, 0.0081140657988051
525, 3, 3, -0.057838607983709
526, 1, 1, 0.0033211137120488
526, 2, 2, 0.008114066991336
526, 3, 3, -0.057838665694974
527, 1, 1, 0.0044282654485541
527, 2, 2, 0.0081140681838668
527, 3, 3, -0.057838723406239
528, 1, 1, 0.0055354171850595
528, 2, 2, 0.0081140693763977
528, 3, 3, -0.057838781117504
529, 1, 1, 0.0066425689215648
529, 2, 2, 0.0081140705689285
529, 3, 3, -0.057838838828769
530, 1, 1, 0.0077497206580701
530, 2, 2, 0.0081140717614594
530, 3, 3, -0.057838896540034
531, 1, 1, 0.0088568723945754
531, 2, 2, 0.0081140729539902
531, 3, 3, -0.057838954251299
532, 1, 1, -3.4030493634152e-07
532, 2, 2, 0.010142578044836
532, 3, 3, -0.057838491746283
533, 1, 1, 0.001106811431569
533, 2, 2, 0.010142579237367
533, 3, 3, -0.057838549457548
534, 1, 1, 0.0022139631680743
534, 2, 2, 0.010142580429898
534, 3, 3, -0.057838607168813
535, 1, 1, 0.0033211149045796
535, 2, 2, 0.010142581622429
535, 3, 3, -0.057838664880078
536, 1, 1, 0.004428266641085
536, 2, 2, 0.010142582814959
536, 3, 3, -0.057838722591343
537, 1, 1, 0.0055354183775903
537, 2, 2, 0.01014258400749
537, 3, 3, -0.057838780302609
538, 1, 1, 0.0066425701140956
538, 2, 2, 0.010142585200021
538, 3, 3, -0.057838838013874
539, 1, 1, 0.007749721850601
539, 2, 2, 0.010142586392552
539, 3, 3, -0.057838895725139
540, 1, 1, 0.0088568735871063
540, 2, 2, 0.010142587585083
540, 3, 3, -0.057838953436404
541, 1, 1, -3.3911240548967e-07
541, 2, 2, 0.012171092675929
541, 3, 3, -0.057838490931387
542, 1, 1, 0.0011068126240998
542, 2, 2, 0.012171093868459
542, 3, 3, -0.057838548642653
543, 1, 1, 0.0022139643606052
543, 2, 2, 0.01217109506099
543, 3, 3, -0.057838606353918
544, 1, 1, 0.0033211160971105
544, 2, 2, 0.012171096253521
544, 3, 3, -0.057838664065183
545, 1, 1, 0.0044282678336158
545, 2, 2, 0.012171097446052
545, 3, 3, -0.057838721776448
546, 1, 1, 0.0055354195701212
546, 2, 2, 0.012171098638583
546, 3, 3, -0.057838779487713
547, 1, 1, 0.0066425713066265
547, 2, 2, 0.012171099831114
547, 3, 3, -0.057838837198978
548, 1, 1, 0.0077497230431318
548, 2, 2, 0.012171101023644
548, 3, 3, -0.057838894910243
549, 1, 1, 0.0088568747796371
549, 2, 2, 0.012171102216175
549, 3, 3, -0.057838952621508
550, 1, 1, -3.3791987463783e-07
550, 2, 2, 0.014199607307021
550, 3, 3, -0.057838490116492
551, 1, 1, 0.0011068138166307
551, 2, 2, 0.014199608499552
551, 3, 3, -0.057838547827757
552, 1, 1, 0.002213965553136
552, 2, 2, 0.014199609692083
552, 3, 3, -0.057838605539022
553, 1, 1, 0.0033211172896414
553, 2, 2, 0.014199610884614
553, 3, 3, -0.057838663250287
554, 1, 1, 0.0044282690261467
554, 2, 2, 0.014199612077144
554, 3, 3, -0.057838720961552
555, 1, 1, 0.005535420762652
555, 2, 2, 0.014199613269675
555, 3, 3, -0.057838778672817
556, 1, 1, 0.0066425724991573
556, 2, 2, 0.014199614462206
556, 3, 3, -0.057838836384083
557, 1, 1, 0.0077497242356627
557, 2, 2, 0.014199615654737
557, 3, 3, -0.057838894095348
558, 1, 1, 0.008856875972168
558, 2, 2, 0.014199616847268
558, 3, 3, -0.057838951806613
559, 1, 1, -3.3672734378598e-07
559, 2, 2, 0.016228121938114
559, 3, 3, -0.057838489301596
560, 1, 1, 0.0011068150091615
560, 2, 2, 0.016228123130644
560, 3, 3, -0.057838547012862
561, 1, 1, 0.0022139667456669
561, 2, 2, 0.016228124323175
561, 3, 3, -0.057838604724127
562, 1, 1, 0.0033211184821722
562, 2, 2, 0.016228125515706
562, 3, 3, -0.057838662435392
563, 1, 1, 0.0044282702186775
563, 2, 2, 0.016228126708237
563, 3, 3, -0.057838720146657
564, 1, 1, 0.0055354219551829
564, 2, 2, 0.016228127900768
564, 3, 3, -0.057838777857922
565, 1, 1, 0.0066425736916882
565, 2, 2, 0.016228129093299
565, 3, 3, -0.057838835569187
566, 1, 1, 0.0077497254281935
566, 2, 2, 0.01622813028583
566, 3, 3, -0.057838893280452
567, 1, 1, 0.0088568771646989
567, 2, 2, 0.01622813147836
567, 3, 3, -0.057838950991717
568, 1, 1, -4.0397885570087e-07
568, 2, 2, 5.7042687795494e-09
568, 3, 3, -0.067478245124221
569, 1, 1, 0.0011067477576496
569, 2, 2, 6.8967996313951e-09
569, 3, 3, -0.067478302835486
570, 1, 1, 0.002213899494155
570, 2, 2, 8.0893304832408e-09
570, 3, 3, -0.067478360546751
571, 1, 1, 0.0033210512306603
571, 2, 2, 9.2818613350865e-09
571, 3, 3, -0.067478418258016
572, 1, 1, 0.0044282029671656
572, 2, 2, 1.0474392186932e-08
572, 3, 3, -0.067478475969281
573, 1, 1, 0.0055353547036709
573, 2, 2, 1.1666923038778e-08
573, 3, 3, -0.067478533680546
574, 1, 1, 0.0066425064401763
574, 2, 2, 1.2859453890623e-08
574, 3, 3, -0.067478591391811
575, 1, 1, 0.0077496581766816
575, 2, 2, 1.4051984742469e-08
575, 3, 3, -0.067478649103077
576, 1, 1, 0.0088568099131869
576, 2, 2, 1.5244515594315e-08
576, 3, 3, -0.067478706814342
577, 1, 1, -4.0278632484902e-07
577, 2, 2, 0.0020285203353613
577, 3, 3, -0.067478244309325
578, 1, 1, 0.0011067489501805
578, 2, 2, 0.0020285215278922
578, 3, 3, -0.06747830202059
579, 1, 1, 0.0022139006866858
579, 2, 2, 0.002028522720423
579, 3, 3, -0.067478359731856
580, 1, 1, 0.0033210524231911
580, 2, 2, 0.0020285239129539
580, 3, 3, -0.067478417443121
581, 1, 1, 0.0044282041596965
581, 2, 2, 0.0020285251054847
581, 3, 3, -0.067478475154386
582, 1, 1, 0.0055353558962018
582, 2, 2, 0.0020285262980156
582, 3, 3, -0.067478532865651
583, 1, 1, 0.0066425076327071
583, 2, 2, 0.0020285274905464
583, 3, 3, -0.067478590576916
584, 1, 1, 0.0077496593692125
584, 2, 2, 0.0020285286830773
584, 3, 3, -0.067478648288181
585, 1, 1, 0.0088568111057178
585, 2, 2, 0.0020285298756081
585, 3, 3, -0.067478705999446
586, 1, 1, -4.0159379399718e-07
586, 2, 2, 0.0040570349664539
586, 3, 3, -0.06747824349443
587, 1, 1, 0.0011067501427113
587, 2, 2, 0.0040570361589847
587, 3, 3, -0.067478301205695
588, 1, 1, 0.0022139018792167
588, 2, 2, 0.0040570373515156
588, 3, 3, -0.06747835891696
589, 1, 1, 0.003321053615722
589, 2, 2, 0.0040570385440464
589, 3, 3, -0.067478416628225
590, 1, 1, 0.0044282053522273
590, 2, 2, 0.0040570397365773
590, 3, 3, -0.06747847433949
591, 1, 1, 0.0055353570887327
591, 2, 2, 0.0040570409291081
591, 3, 3, -0.067478532050755
592, 1, 1, 0.006642508825238
592, 2, 2, 0.004057042121639
592, 3, 3, -0.06747858976202
593, 1, 1, 0.0077496605617433
593, 2, 2, 0.0040570433141698
593, 3, 3, -0.067478647473285
594, 1, 1, 0.0088568122982486
594, 2, 2, 0.0040570445067007
594, 3, 3, -0.067478705184551
595, 1, 1, -4.0040126314533e-07
595, 2, 2, 0.0060855495975464
595, 3, 3, -0.067478242679534
596, 1, 1, 0.0011067513352422
596, 2, 2, 0.0060855507900773
596, 3, 3, -0.067478300390799
597, 1, 1, 0.0022139030717475
597, 2, 2, 0.0060855519826081
597, 3, 3, -0.067478358102064
598, 1, 1, 0.0033210548082528
598, 2, 2, 0.006085553175139
598, 3, 3, -0.06747841581333
599, 1, 1, 0.0044282065447582
599, 2, 2, 0.0060855543676698
599, 3, 3, -0.067478473524595
600, 1, 1, 0.0055353582812635
600, 2, 2, 0.0060855555602007
600, 3, 3, -0.06747853123586
601, 1, 1, 0.0066425100177688
601, 2, 2, 0.0060855567527315
601, 3, 3, -0.067478588947125
602, 1, 1, 0.0077496617542742
602, 2, 2, 0.0060855579452624
602, 3, 3, -0.06747864665839
603, 1, 1, 0.0088568134907795
603, 2, 2, 0.0060855591377932
603, 3, 3, -0.067478704369655
604, 1, 1, -3.9920873229349e-07
604, 2, 2, 0.008114064228639
604, 3, 3, -0.067478241864639
605, 1, 1, 0.001106752527773
605, 2, 2, 0.0081140654211698
605, 3, 3, -0.067478299575904
606, 1, 1, 0.0022139042642784
606, 2, 2, 0.0081140666137007
606, 3, 3, -0.067478357287169
607, 1, 1, 0.0033210560007837
607, 2, 2, 0.0081140678062315
607, 3, 3, -0.067478414998434
608, 1, 1, 0.004428207737289
608, 2, 2, 0.0081140689987624
608, 3, 3, -0.067478472709699
609, 1, 1, 0.0055353594737944
609, 2, 2, 0.0081140701912932
609, 3, 3, -0.067478530420964
610, 1, 1, 0.0066425112102997
610, 2, 2, 0.0081140713838241
610, 3, 3, -0.067478588132229
611, 1, 1, 0.007749662946805
611, 2, 2, 0.0081140725763549
611, 3, 3, -0.067478645843494
612, 1, 1, 0.0088568146833103
612, 2, 2, 0.0081140737688858
612, 3, 3, -0.067478703554759
613, 1, 1, -3.9801620144164e-07
613, 2, 2, 0.010142578859732
613, 3, 3, -0.067478241049743
614, 1, 1, 0.0011067537203039
614, 2, 2, 0.010142580052262
614, 3, 3, -0.067478298761008
615, 1, 1, 0.0022139054568092
615, 2, 2, 0.010142581244793
615, 3, 3, -0.067478356472273
616, 1, 1, 0.0033210571933145
616, 2, 2, 0.010142582437324
616, 3, 3, -0.067478414183538
617, 1, 1, 0.0044282089298199
617, 2, 2, 0.010142583629855
617, 3, 3, -0.067478471894804
618, 1, 1, 0.0055353606663252
618, 2, 2, 0.010142584822386
618, 3, 3, -0.067478529606069
619, 1, 1, 0.0066425124028305
619, 2, 2, 0.010142586014917
619, 3, 3, -0.067478587317334
620, 1, 1, 0.0077496641393359
620, 2, 2, 0.010142587207447
620, 3, 3, -0.067478645028599
621, 1, 1, 0.0088568158758412
621, 2, 2, 0.010142588399978
621, 3, 3, -0.067478702739864
622, 1, 1, -3.968236705898e-07
622, 2, 2, 0.012171093490824
622, 3, 3, -0.067478240234848
623, 1, 1, 0.0011067549128347
623, 2, 2, 0.012171094683355
623, 3, 3, -0.067478297946113
624, 1, 1, 0.0022139066493401
624, 2, 2, 0.012171095875886
624, 3, 3, -0.067478355657378
625, 1, 1, 0.0033210583858454
625, 2, 2, 0.012171097068417
625, 3, 3, -0.067478413368643
626, 1, 1, 0.0044282101223507
626, 2, 2, 0.012171098260947
626, 3, 3, -0.067478471079908
627, 1, 1, 0.0055353618588561
627, 2, 2, 0.012171099453478
627, 3, 3, -0.067478528791173
628, 1, 1, 0.0066425135953614
628, 2, 2, 0.012171100646009
628, 3, 3, -0.067478586502438
629, 1, 1, 0.0077496653318667
629, 2, 2, 0.01217110183854
629, 3, 3, -0.067478644213703
630, 1, 1, 0.008856817068372
630, 2, 2, 0.012171103031071
630, 3, 3, -0.067478701924968
631, 1, 1, -3.9563113973795e-07
631, 2, 2, 0.014199608121917
631, 3, 3, -0.067478239419952
632, 1, 1, 0.0011067561053656
632, 2, 2, 0.014199609314447
632, 3, 3, -0.067478297131217
633, 1, 1, 0.0022139078418709
633, 2, 2, 0.014199610506978
633, 3, 3, -0.067478354842482
634, 1, 1, 0.0033210595783763
634, 2, 2, 0.014199611699509
634, 3, 3, -0.067478412553747
635, 1, 1, 0.0044282113148816
635, 2, 2, 0.01419961289204
635, 3, 3, -0.067478470265012
636, 1, 1, 0.0055353630513869
636, 2, 2, 0.014199614084571
636, 3, 3, -0.067478527976278
637, 1, 1, 0.0066425147878922
637, 2, 2, 0.014199615277102
637, 3, 3, -0.067478585687543
638, 1, 1, 0.0077496665243976
638, 2, 2, 0.014199616469633
638, 3, 3, -0.067478643398808
639, 1, 1, 0.0088568182609029
639, 2, 2, 0.014199617662163
639, 3, 3, -0.067478701110073
640, 1, 1, -3.9443860888611e-07
640, 2, 2, 0.016228122753009
640, 3, 3, -0.067478238605057
641, 1, 1, 0.0011067572978964
641, 2, 2, 0.01622812394554
641, 3, 3, -0.067478296316322
642, 1, 1, 0.0022139090344018
642, 2, 2, 0.016228125138071
642, 3, 3, -0.067478354027587
643, 1, 1, 0.0033210607709071
643, 2, 2, 0.016228126330602
643, 3, 3, -0.067478411738852
644, 1, 1, 0.0044282125074124
644, 2, 2, 0.016228127523133
644, 3, 3, -0.067478469450117
645, 1, 1, 0.0055353642439178
645, 2, 2, 0.016228128715663
645, 3, 3, -0.067478527161382
646, 1, 1, 0.0066425159804231
646, 2, 2, 0.016228129908194
646, 3, 3, -0.067478584872647
647, 1, 1, 0.0077496677169284
647, 2, 2, 0.016228131100725
647, 3, 3, -0.067478642583912
648, 1, 1, 0.0088568194534338
648, 2, 2, 0.016228132293256
648, 3, 3, -0.067478700295177
649, 1, 1, -4.6169012080099e-07
649, 2, 2, 6.5191643194851e-09
649, 3, 3, -0.077117994427681
650, 1, 1, 0.0011066900463845
650, 2, 2, 7.7116951713307e-09
650, 3, 3, -0.077118052138946
651, 1, 1, 0.0022138417828899
651, 2, 2, 8.9042260231764e-09
651, 3, 3, -0.077118109850211
652, 1, 1, 0.0033209935193952
652, 2, 2, 1.0096756875022e-08
652, 3, 3, -0.077118167561476
653, 1, 1, 0.0044281452559005
653, 2, 2, 1.1289287726868e-08
653, 3, 3, -0.077118225272741
654, 1, 1, 0.0055352969924058
654, 2, 2, 1.2481818578713e-08
654, 3, 3, -0.077118282984006
655, 1, 1, 0.0066424487289112
655, 2, 2, 1.3674349430559e-08
655, 3, 3, -0.077118340695272
656, 1, 1, 0.0077496004654165
656, 2, 2, 1.4866880282405e-08
656, 3, 3, -0.077118398406537
657, 1, 1, 0.0088567522019218
657, 2, 2, 1.605941113425e-08
657, 3, 3, -0.077118456117802
658, 1, 1, -4.6049758994915e-07
658, 2, 2, 0.0020285211502569
658, 3, 3, -0.077117993612785
659, 1, 1, 0.0011066912389154
659, 2, 2, 0.0020285223427877
659, 3, 3, -0.077118051324051
660, 1, 1, 0.0022138429754207
660, 2, 2, 0.0020285235353186
660, 3, 3, -0.077118109035316
661, 1, 1, 0.003320994711926
661, 2, 2, 0.0020285247278494
661, 3, 3, -0.077118166746581
662, 1, 1, 0.0044281464484314
662, 2, 2, 0.0020285259203803
662, 3, 3, -0.077118224457846
663, 1, 1, 0.0055352981849367
663, 2, 2, 0.0020285271129111
663, 3, 3, -0.077118282169111
664, 1, 1, 0.006642449921442
664, 2, 2, 0.002028528305442
664, 3, 3, -0.077118339880376
665, 1, 1, 0.0077496016579474
665, 2, 2, 0.0020285294979728
665, 3, 3, -0.077118397591641
666, 1, 1, 0.0088567533944527
666, 2, 2, 0.0020285306905037
666, 3, 3, -0.077118455302906
667, 1, 1, -4.593050590973e-07
667, 2, 2, 0.0040570357813494
667, 3, 3, -0.07711799279789
668, 1, 1, 0.0011066924314462
668, 2, 2, 0.0040570369738803
668, 3, 3, -0.077118050509155
669, 1, 1, 0.0022138441679516
669, 2, 2, 0.0040570381664111
669, 3, 3, -0.07711810822042
670, 1, 1, 0.0033209959044569
670, 2, 2, 0.004057039358942
670, 3, 3, -0.077118165931685
671, 1, 1, 0.0044281476409622
671, 2, 2, 0.0040570405514728
671, 3, 3, -0.07711822364295
672, 1, 1, 0.0055352993774676
672, 2, 2, 0.0040570417440037
672, 3, 3, -0.077118281354215
673, 1, 1, 0.0066424511139729
673, 2, 2, 0.0040570429365345
673, 3, 3, -0.07711833906548
674, 1, 1, 0.0077496028504782
674, 2, 2, 0.0040570441290654
674, 3, 3, -0.077118396776746
675, 1, 1, 0.0088567545869835
675, 2, 2, 0.0040570453215962
675, 3, 3, -0.077118454488011
676, 1, 1, -4.5811252824546e-07
676, 2, 2, 0.006085550412442
676, 3, 3, -0.077117991982994
677, 1, 1, 0.0011066936239771
677, 2, 2, 0.0060855516049728
677, 3, 3, -0.077118049694259
678, 1, 1, 0.0022138453604824
678, 2, 2, 0.0060855527975037
678, 3, 3, -0.077118107405525
679, 1, 1, 0.0033209970969877
679, 2, 2, 0.0060855539900345
679, 3, 3, -0.07711816511679
680, 1, 1, 0.0044281488334931
680, 2, 2, 0.0060855551825654
680, 3, 3, -0.077118222828055
681, 1, 1, 0.0055353005699984
681, 2, 2, 0.0060855563750962
681, 3, 3, -0.07711828053932
682, 1, 1, 0.0066424523065037
682, 2, 2, 0.0060855575676271
682, 3, 3, -0.077118338250585
683, 1, 1, 0.0077496040430091
683, 2, 2, 0.0060855587601579
683, 3, 3, -0.07711839596185
684, 1, 1, 0.0088567557795144
684, 2, 2, 0.0060855599526888
684, 3, 3, -0.077118453673115
685, 1, 1, -4.5691999739361e-07
685, 2, 2, 0.0081140650435345
685, 3, 3, -0.077117991168099
686, 1, 1, 0.0011066948165079
686, 2, 2, 0.0081140662360654
686, 3, 3, -0.077118048879364
687, 1, 1, 0.0022138465530133
687, 2, 2, 0.0081140674285962
687, 3, 3, -0.077118106590629
688, 1, 1, 0.0033209982895186
688, 2, 2, 0.0081140686211271
688, 3, 3, -0.077118164301894
689, 1, 1, 0.0044281500260239
689, 2, 2, 0.0081140698136579
689, 3, 3, -0.077118222013159
690, 1, 1, 0.0055353017625293
690, 2, 2, 0.0081140710061888
690, 3, 3, -0.077118279724424
691, 1, 1, 0.0066424534990346
691, 2, 2, 0.0081140721987196
691, 3, 3, -0.077118337435689
692, 1, 1, 0.0077496052355399
692, 2, 2, 0.0081140733912505
692, 3, 3, -0.077118395146955
693, 1, 1, 0.0088567569720452
693, 2, 2, 0.0081140745837813
693, 3, 3, -0.07711845285822
694, 1, 1, -4.5572746654177e-07
694, 2, 2, 0.010142579674627
694, 3, 3, -0.077117990353203
695, 1, 1, 0.0011066960090388
695, 2, 2, 0.010142580867158
695, 3, 3, -0.077118048064468
696, 1, 1, 0.0022138477455441
696, 2, 2, 0.010142582059689
696, 3, 3, -0.077118105775733
697, 1, 1, 0.0033209994820494
697, 2, 2, 0.01014258325222
697, 3, 3, -0.077118163486999
698, 1, 1, 0.0044281512185548
698, 2, 2, 0.01014258444475
698, 3, 3, -0.077118221198264
699, 1, 1, 0.0055353029550601
699, 2, 2, 0.010142585637281
699, 3, 3, -0.077118278909529
700, 1, 1, 0.0066424546915654
700, 2, 2, 0.010142586829812
700, 3, 3, -0.077118336620794
701, 1, 1, 0.0077496064280708
701, 2, 2, 0.010142588022343
701, 3, 3, -0.077118394332059
702, 1, 1, 0.0088567581645761
702, 2, 2, 0.010142589214874
702, 3, 3, -0.077118452043324
703, 1, 1, -4.5453493568992e-07
703, 2, 2, 0.01217109430572
703, 3, 3, -0.077117989538308
704, 1, 1, 0.0011066972015696
704, 2, 2, 0.01217109549825
704, 3, 3, -0.077118047249573
705, 1, 1, 0.002213848938075
705, 2, 2, 0.012171096690781
705, 3, 3, -0.077118104960838
706, 1, 1, 0.0033210006745803
706, 2, 2, 0.012171097883312
706, 3, 3, -0.077118162672103
707, 1, 1, 0.0044281524110856
707, 2, 2, 0.012171099075843
707, 3, 3, -0.077118220383368
708, 1, 1, 0.005535304147591
708, 2, 2, 0.012171100268374
708, 3, 3, -0.077118278094633
709, 1, 1, 0.0066424558840963
709, 2, 2, 0.012171101460905
709, 3, 3, -0.077118335805898
710, 1, 1, 0.0077496076206016
710, 2, 2, 0.012171102653436
710, 3, 3, -0.077118393517163
711, 1, 1, 0.0088567593571069
711, 2, 2, 0.012171103845966
711, 3, 3, -0.077118451228429
712, 1, 1, -4.5334240483808e-07
712, 2, 2, 0.014199608936812
712, 3, 3, -0.077117988723412
713, 1, 1, 0.0011066983941005
713, 2, 2, 0.014199610129343
713, 3, 3, -0.077118046434677
714, 1, 1, 0.0022138501306058
714, 2, 2, 0.014199611321874
714, 3, 3, -0.077118104145942
715, 1, 1, 0.0033210018671112
715, 2, 2, 0.014199612514405
715, 3, 3, -0.077118161857207
716, 1, 1, 0.0044281536036165
716, 2, 2, 0.014199613706936
716, 3, 3, -0.077118219568473
717, 1, 1, 0.0055353053401218
717, 2, 2, 0.014199614899466
717, 3, 3, -0.077118277279738
718, 1, 1, 0.0066424570766271
718, 2, 2, 0.014199616091997
718, 3, 3, -0.077118334991003
719, 1, 1, 0.0077496088131325
719, 2, 2, 0.014199617284528
719, 3, 3, -0.077118392702268
720, 1, 1, 0.0088567605496378
720, 2, 2, 0.014199618477059
720, 3, 3, -0.077118450413533
721, 1, 1, -4.5214987398623e-07
721, 2, 2, 0.016228123567905
721, 3, 3, -0.077117987908517
722, 1, 1, 0.0011066995866313
722, 2, 2, 0.016228124760436
722, 3, 3, -0.077118045619782
723, 1, 1, 0.0022138513231367
723, 2, 2, 0.016228125952966
723, 3, 3, -0.077118103331047
724, 1, 1, 0.003321003059642
724, 2, 2, 0.016228127145497
724, 3, 3, -0.077118161042312
725, 1, 1, 0.0044281547961473
725, 2, 2, 0.016228128338028
725, 3, 3, -0.077118218753577
726, 1, 1, 0.0055353065326527
726, 2, 2, 0.016228129530559
726, 3, 3, -0.077118276464842
727, 1, 1, 0.006642458269158
727, 2, 2, 0.01622813072309
727, 3, 3, -0.077118334176107
728, 1, 1, 0.0077496100056633
728, 2, 2, 0.016228131915621
728, 3, 3, -0.077118391887372
729, 1, 1, 0.0088567617421687
729, 2, 2, 0.016228133108152
729, 3, 3, -0.077118449598637
*Output, field, frequency=1
*Element Output
S, E, SDV
*Node Output
U
*Output, history, frequency=1
*Energy Output
ALLSE, ALLIE, ALLPD, ALLAE
*End Step
