*Heading
** WCM B G4 energy fixture; mm N MPa
*Node
1, 0, 0, 0
2, 0.1, 0, 0
3, 0.1, 0.1, 0
4, 0, 0.1, 0
5, 0, 0, 0.1
6, 0.1, 0, 0.1
7, 0.1, 0.1, 0.1
8, 0, 0.1, 0.1
*Element, type=C3D8R, elset=EALL
1, 1, 2, 3, 4, 5, 6, 7, 8
*Section Controls, name=HG_UMAT, hourglass=ENHANCED
*Solid Section, elset=EALL, material=PLY_B, controls=HG_UMAT
0.1,
*Material, name=PLY_B
*Depvar
62,
*User Material, constants=30, unsymm
141000 ,11400 ,11400 ,0.28 ,0.28 ,0.28 ,7100 ,7100
7100 ,2080 ,1250 ,60 ,290 ,110 ,110 ,110
133 ,10 ,0.5 ,1.6 ,1 ,0.9 ,0.5 ,0
0 ,0 ,0.5 ,1 ,1 ,1
*Step, name=G4ENERGY, inc=10000, nlgeom=NO
*Static
0.005, 1., 1e-20, 0.1
*Amplitude, name=RAMP
0., 0.
1., 1.
*Boundary, amplitude=RAMP
1, 1, 6, 0.
2, 1, 6, 0.
3, 1, 6, 0.
4, 1, 6, 0.
5, 1, 1, 0.
5, 3, 3, 0.
5, 2, 2, 0.015
6, 1, 1, 0.
6, 3, 3, 0.
6, 2, 2, 0.015
7, 1, 1, 0.
7, 3, 3, 0.
7, 2, 2, 0.015
8, 1, 1, 0.
8, 3, 3, 0.
8, 2, 2, 0.015
*Output, field, frequency=1
*Element Output
S, LE, SDV
*Node Output
U
*End Step
