*Heading
** WCM B mesh block study; mm N MPa
*Node
1, 0, 0, 0
2, 0.33333333333333, 0, 0
3, 0.66666666666667, 0, 0
4, 1, 0, 0
5, 1.3333333333333, 0, 0
6, 1.6666666666667, 0, 0
7, 2, 0, 0
8, 0, 0.33333333333333, 0
9, 0.33333333333333, 0.33333333333333, 0
10, 0.66666666666667, 0.33333333333333, 0
11, 1, 0.33333333333333, 0
12, 1.3333333333333, 0.33333333333333, 0
13, 1.6666666666667, 0.33333333333333, 0
14, 2, 0.33333333333333, 0
15, 0, 0.66666666666667, 0
16, 0.33333333333333, 0.66666666666667, 0
17, 0.66666666666667, 0.66666666666667, 0
18, 1, 0.66666666666667, 0
19, 1.3333333333333, 0.66666666666667, 0
20, 1.6666666666667, 0.66666666666667, 0
21, 2, 0.66666666666667, 0
22, 0, 1, 0
23, 0.33333333333333, 1, 0
24, 0.66666666666667, 1, 0
25, 1, 1, 0
26, 1.3333333333333, 1, 0
27, 1.6666666666667, 1, 0
28, 2, 1, 0
29, 0, 1.3333333333333, 0
30, 0.33333333333333, 1.3333333333333, 0
31, 0.66666666666667, 1.3333333333333, 0
32, 1, 1.3333333333333, 0
33, 1.3333333333333, 1.3333333333333, 0
34, 1.6666666666667, 1.3333333333333, 0
35, 2, 1.3333333333333, 0
36, 0, 1.6666666666667, 0
37, 0.33333333333333, 1.6666666666667, 0
38, 0.66666666666667, 1.6666666666667, 0
39, 1, 1.6666666666667, 0
40, 1.3333333333333, 1.6666666666667, 0
41, 1.6666666666667, 1.6666666666667, 0
42, 2, 1.6666666666667, 0
43, 0, 2, 0
44, 0.33333333333333, 2, 0
45, 0.66666666666667, 2, 0
46, 1, 2, 0
47, 1.3333333333333, 2, 0
48, 1.6666666666667, 2, 0
49, 2, 2, 0
50, 0, 0, 0.33333333333333
51, 0.33333333333333, 0, 0.33333333333333
52, 0.66666666666667, 0, 0.33333333333333
53, 1, 0, 0.33333333333333
54, 1.3333333333333, 0, 0.33333333333333
55, 1.6666666666667, 0, 0.33333333333333
56, 2, 0, 0.33333333333333
57, 0, 0.33333333333333, 0.33333333333333
58, 0.33333333333333, 0.33333333333333, 0.33333333333333
59, 0.66666666666667, 0.33333333333333, 0.33333333333333
60, 1, 0.33333333333333, 0.33333333333333
61, 1.3333333333333, 0.33333333333333, 0.33333333333333
62, 1.6666666666667, 0.33333333333333, 0.33333333333333
63, 2, 0.33333333333333, 0.33333333333333
64, 0, 0.66666666666667, 0.33333333333333
65, 0.33333333333333, 0.66666666666667, 0.33333333333333
66, 0.66666666666667, 0.66666666666667, 0.33333333333333
67, 1, 0.66666666666667, 0.33333333333333
68, 1.3333333333333, 0.66666666666667, 0.33333333333333
69, 1.6666666666667, 0.66666666666667, 0.33333333333333
70, 2, 0.66666666666667, 0.33333333333333
71, 0, 1, 0.33333333333333
72, 0.33333333333333, 1, 0.33333333333333
73, 0.66666666666667, 1, 0.33333333333333
74, 1, 1, 0.33333333333333
75, 1.3333333333333, 1, 0.33333333333333
76, 1.6666666666667, 1, 0.33333333333333
77, 2, 1, 0.33333333333333
78, 0, 1.3333333333333, 0.33333333333333
79, 0.33333333333333, 1.3333333333333, 0.33333333333333
80, 0.66666666666667, 1.3333333333333, 0.33333333333333
81, 1, 1.3333333333333, 0.33333333333333
82, 1.3333333333333, 1.3333333333333, 0.33333333333333
83, 1.6666666666667, 1.3333333333333, 0.33333333333333
84, 2, 1.3333333333333, 0.33333333333333
85, 0, 1.6666666666667, 0.33333333333333
86, 0.33333333333333, 1.6666666666667, 0.33333333333333
87, 0.66666666666667, 1.6666666666667, 0.33333333333333
88, 1, 1.6666666666667, 0.33333333333333
89, 1.3333333333333, 1.6666666666667, 0.33333333333333
90, 1.6666666666667, 1.6666666666667, 0.33333333333333
91, 2, 1.6666666666667, 0.33333333333333
92, 0, 2, 0.33333333333333
93, 0.33333333333333, 2, 0.33333333333333
94, 0.66666666666667, 2, 0.33333333333333
95, 1, 2, 0.33333333333333
96, 1.3333333333333, 2, 0.33333333333333
97, 1.6666666666667, 2, 0.33333333333333
98, 2, 2, 0.33333333333333
99, 0, 0, 0.66666666666667
100, 0.33333333333333, 0, 0.66666666666667
101, 0.66666666666667, 0, 0.66666666666667
102, 1, 0, 0.66666666666667
103, 1.3333333333333, 0, 0.66666666666667
104, 1.6666666666667, 0, 0.66666666666667
105, 2, 0, 0.66666666666667
106, 0, 0.33333333333333, 0.66666666666667
107, 0.33333333333333, 0.33333333333333, 0.66666666666667
108, 0.66666666666667, 0.33333333333333, 0.66666666666667
109, 1, 0.33333333333333, 0.66666666666667
110, 1.3333333333333, 0.33333333333333, 0.66666666666667
111, 1.6666666666667, 0.33333333333333, 0.66666666666667
112, 2, 0.33333333333333, 0.66666666666667
113, 0, 0.66666666666667, 0.66666666666667
114, 0.33333333333333, 0.66666666666667, 0.66666666666667
115, 0.66666666666667, 0.66666666666667, 0.66666666666667
116, 1, 0.66666666666667, 0.66666666666667
117, 1.3333333333333, 0.66666666666667, 0.66666666666667
118, 1.6666666666667, 0.66666666666667, 0.66666666666667
119, 2, 0.66666666666667, 0.66666666666667
120, 0, 1, 0.66666666666667
121, 0.33333333333333, 1, 0.66666666666667
122, 0.66666666666667, 1, 0.66666666666667
123, 1, 1, 0.66666666666667
124, 1.3333333333333, 1, 0.66666666666667
125, 1.6666666666667, 1, 0.66666666666667
126, 2, 1, 0.66666666666667
127, 0, 1.3333333333333, 0.66666666666667
128, 0.33333333333333, 1.3333333333333, 0.66666666666667
129, 0.66666666666667, 1.3333333333333, 0.66666666666667
130, 1, 1.3333333333333, 0.66666666666667
131, 1.3333333333333, 1.3333333333333, 0.66666666666667
132, 1.6666666666667, 1.3333333333333, 0.66666666666667
133, 2, 1.3333333333333, 0.66666666666667
134, 0, 1.6666666666667, 0.66666666666667
135, 0.33333333333333, 1.6666666666667, 0.66666666666667
136, 0.66666666666667, 1.6666666666667, 0.66666666666667
137, 1, 1.6666666666667, 0.66666666666667
138, 1.3333333333333, 1.6666666666667, 0.66666666666667
139, 1.6666666666667, 1.6666666666667, 0.66666666666667
140, 2, 1.6666666666667, 0.66666666666667
141, 0, 2, 0.66666666666667
142, 0.33333333333333, 2, 0.66666666666667
143, 0.66666666666667, 2, 0.66666666666667
144, 1, 2, 0.66666666666667
145, 1.3333333333333, 2, 0.66666666666667
146, 1.6666666666667, 2, 0.66666666666667
147, 2, 2, 0.66666666666667
148, 0, 0, 1
149, 0.33333333333333, 0, 1
150, 0.66666666666667, 0, 1
151, 1, 0, 1
152, 1.3333333333333, 0, 1
153, 1.6666666666667, 0, 1
154, 2, 0, 1
155, 0, 0.33333333333333, 1
156, 0.33333333333333, 0.33333333333333, 1
157, 0.66666666666667, 0.33333333333333, 1
158, 1, 0.33333333333333, 1
159, 1.3333333333333, 0.33333333333333, 1
160, 1.6666666666667, 0.33333333333333, 1
161, 2, 0.33333333333333, 1
162, 0, 0.66666666666667, 1
163, 0.33333333333333, 0.66666666666667, 1
164, 0.66666666666667, 0.66666666666667, 1
165, 1, 0.66666666666667, 1
166, 1.3333333333333, 0.66666666666667, 1
167, 1.6666666666667, 0.66666666666667, 1
168, 2, 0.66666666666667, 1
169, 0, 1, 1
170, 0.33333333333333, 1, 1
171, 0.66666666666667, 1, 1
172, 1, 1, 1
173, 1.3333333333333, 1, 1
174, 1.6666666666667, 1, 1
175, 2, 1, 1
176, 0, 1.3333333333333, 1
177, 0.33333333333333, 1.3333333333333, 1
178, 0.66666666666667, 1.3333333333333, 1
179, 1, 1.3333333333333, 1
180, 1.3333333333333, 1.3333333333333, 1
181, 1.6666666666667, 1.3333333333333, 1
182, 2, 1.3333333333333, 1
183, 0, 1.6666666666667, 1
184, 0.33333333333333, 1.6666666666667, 1
185, 0.66666666666667, 1.6666666666667, 1
186, 1, 1.6666666666667, 1
187, 1.3333333333333, 1.6666666666667, 1
188, 1.6666666666667, 1.6666666666667, 1
189, 2, 1.6666666666667, 1
190, 0, 2, 1
191, 0.33333333333333, 2, 1
192, 0.66666666666667, 2, 1
193, 1, 2, 1
194, 1.3333333333333, 2, 1
195, 1.6666666666667, 2, 1
196, 2, 2, 1
197, 0, 0, 1.3333333333333
198, 0.33333333333333, 0, 1.3333333333333
199, 0.66666666666667, 0, 1.3333333333333
200, 1, 0, 1.3333333333333
201, 1.3333333333333, 0, 1.3333333333333
202, 1.6666666666667, 0, 1.3333333333333
203, 2, 0, 1.3333333333333
204, 0, 0.33333333333333, 1.3333333333333
205, 0.33333333333333, 0.33333333333333, 1.3333333333333
206, 0.66666666666667, 0.33333333333333, 1.3333333333333
207, 1, 0.33333333333333, 1.3333333333333
208, 1.3333333333333, 0.33333333333333, 1.3333333333333
209, 1.6666666666667, 0.33333333333333, 1.3333333333333
210, 2, 0.33333333333333, 1.3333333333333
211, 0, 0.66666666666667, 1.3333333333333
212, 0.33333333333333, 0.66666666666667, 1.3333333333333
213, 0.66666666666667, 0.66666666666667, 1.3333333333333
214, 1, 0.66666666666667, 1.3333333333333
215, 1.3333333333333, 0.66666666666667, 1.3333333333333
216, 1.6666666666667, 0.66666666666667, 1.3333333333333
217, 2, 0.66666666666667, 1.3333333333333
218, 0, 1, 1.3333333333333
219, 0.33333333333333, 1, 1.3333333333333
220, 0.66666666666667, 1, 1.3333333333333
221, 1, 1, 1.3333333333333
222, 1.3333333333333, 1, 1.3333333333333
223, 1.6666666666667, 1, 1.3333333333333
224, 2, 1, 1.3333333333333
225, 0, 1.3333333333333, 1.3333333333333
226, 0.33333333333333, 1.3333333333333, 1.3333333333333
227, 0.66666666666667, 1.3333333333333, 1.3333333333333
228, 1, 1.3333333333333, 1.3333333333333
229, 1.3333333333333, 1.3333333333333, 1.3333333333333
230, 1.6666666666667, 1.3333333333333, 1.3333333333333
231, 2, 1.3333333333333, 1.3333333333333
232, 0, 1.6666666666667, 1.3333333333333
233, 0.33333333333333, 1.6666666666667, 1.3333333333333
234, 0.66666666666667, 1.6666666666667, 1.3333333333333
235, 1, 1.6666666666667, 1.3333333333333
236, 1.3333333333333, 1.6666666666667, 1.3333333333333
237, 1.6666666666667, 1.6666666666667, 1.3333333333333
238, 2, 1.6666666666667, 1.3333333333333
239, 0, 2, 1.3333333333333
240, 0.33333333333333, 2, 1.3333333333333
241, 0.66666666666667, 2, 1.3333333333333
242, 1, 2, 1.3333333333333
243, 1.3333333333333, 2, 1.3333333333333
244, 1.6666666666667, 2, 1.3333333333333
245, 2, 2, 1.3333333333333
246, 0, 0, 1.6666666666667
247, 0.33333333333333, 0, 1.6666666666667
248, 0.66666666666667, 0, 1.6666666666667
249, 1, 0, 1.6666666666667
250, 1.3333333333333, 0, 1.6666666666667
251, 1.6666666666667, 0, 1.6666666666667
252, 2, 0, 1.6666666666667
253, 0, 0.33333333333333, 1.6666666666667
254, 0.33333333333333, 0.33333333333333, 1.6666666666667
255, 0.66666666666667, 0.33333333333333, 1.6666666666667
256, 1, 0.33333333333333, 1.6666666666667
257, 1.3333333333333, 0.33333333333333, 1.6666666666667
258, 1.6666666666667, 0.33333333333333, 1.6666666666667
259, 2, 0.33333333333333, 1.6666666666667
260, 0, 0.66666666666667, 1.6666666666667
261, 0.33333333333333, 0.66666666666667, 1.6666666666667
262, 0.66666666666667, 0.66666666666667, 1.6666666666667
263, 1, 0.66666666666667, 1.6666666666667
264, 1.3333333333333, 0.66666666666667, 1.6666666666667
265, 1.6666666666667, 0.66666666666667, 1.6666666666667
266, 2, 0.66666666666667, 1.6666666666667
267, 0, 1, 1.6666666666667
268, 0.33333333333333, 1, 1.6666666666667
269, 0.66666666666667, 1, 1.6666666666667
270, 1, 1, 1.6666666666667
271, 1.3333333333333, 1, 1.6666666666667
272, 1.6666666666667, 1, 1.6666666666667
273, 2, 1, 1.6666666666667
274, 0, 1.3333333333333, 1.6666666666667
275, 0.33333333333333, 1.3333333333333, 1.6666666666667
276, 0.66666666666667, 1.3333333333333, 1.6666666666667
277, 1, 1.3333333333333, 1.6666666666667
278, 1.3333333333333, 1.3333333333333, 1.6666666666667
279, 1.6666666666667, 1.3333333333333, 1.6666666666667
280, 2, 1.3333333333333, 1.6666666666667
281, 0, 1.6666666666667, 1.6666666666667
282, 0.33333333333333, 1.6666666666667, 1.6666666666667
283, 0.66666666666667, 1.6666666666667, 1.6666666666667
284, 1, 1.6666666666667, 1.6666666666667
285, 1.3333333333333, 1.6666666666667, 1.6666666666667
286, 1.6666666666667, 1.6666666666667, 1.6666666666667
287, 2, 1.6666666666667, 1.6666666666667
288, 0, 2, 1.6666666666667
289, 0.33333333333333, 2, 1.6666666666667
290, 0.66666666666667, 2, 1.6666666666667
291, 1, 2, 1.6666666666667
292, 1.3333333333333, 2, 1.6666666666667
293, 1.6666666666667, 2, 1.6666666666667
294, 2, 2, 1.6666666666667
295, 0, 0, 2
296, 0.33333333333333, 0, 2
297, 0.66666666666667, 0, 2
298, 1, 0, 2
299, 1.3333333333333, 0, 2
300, 1.6666666666667, 0, 2
301, 2, 0, 2
302, 0, 0.33333333333333, 2
303, 0.33333333333333, 0.33333333333333, 2
304, 0.66666666666667, 0.33333333333333, 2
305, 1, 0.33333333333333, 2
306, 1.3333333333333, 0.33333333333333, 2
307, 1.6666666666667, 0.33333333333333, 2
308, 2, 0.33333333333333, 2
309, 0, 0.66666666666667, 2
310, 0.33333333333333, 0.66666666666667, 2
311, 0.66666666666667, 0.66666666666667, 2
312, 1, 0.66666666666667, 2
313, 1.3333333333333, 0.66666666666667, 2
314, 1.6666666666667, 0.66666666666667, 2
315, 2, 0.66666666666667, 2
316, 0, 1, 2
317, 0.33333333333333, 1, 2
318, 0.66666666666667, 1, 2
319, 1, 1, 2
320, 1.3333333333333, 1, 2
321, 1.6666666666667, 1, 2
322, 2, 1, 2
323, 0, 1.3333333333333, 2
324, 0.33333333333333, 1.3333333333333, 2
325, 0.66666666666667, 1.3333333333333, 2
326, 1, 1.3333333333333, 2
327, 1.3333333333333, 1.3333333333333, 2
328, 1.6666666666667, 1.3333333333333, 2
329, 2, 1.3333333333333, 2
330, 0, 1.6666666666667, 2
331, 0.33333333333333, 1.6666666666667, 2
332, 0.66666666666667, 1.6666666666667, 2
333, 1, 1.6666666666667, 2
334, 1.3333333333333, 1.6666666666667, 2
335, 1.6666666666667, 1.6666666666667, 2
336, 2, 1.6666666666667, 2
337, 0, 2, 2
338, 0.33333333333333, 2, 2
339, 0.66666666666667, 2, 2
340, 1, 2, 2
341, 1.3333333333333, 2, 2
342, 1.6666666666667, 2, 2
343, 2, 2, 2
*Element, type=C3D8R, elset=EALL
1, 1, 2, 9, 8, 50, 51, 58, 57
2, 2, 3, 10, 9, 51, 52, 59, 58
3, 3, 4, 11, 10, 52, 53, 60, 59
4, 4, 5, 12, 11, 53, 54, 61, 60
5, 5, 6, 13, 12, 54, 55, 62, 61
6, 6, 7, 14, 13, 55, 56, 63, 62
7, 8, 9, 16, 15, 57, 58, 65, 64
8, 9, 10, 17, 16, 58, 59, 66, 65
9, 10, 11, 18, 17, 59, 60, 67, 66
10, 11, 12, 19, 18, 60, 61, 68, 67
11, 12, 13, 20, 19, 61, 62, 69, 68
12, 13, 14, 21, 20, 62, 63, 70, 69
13, 15, 16, 23, 22, 64, 65, 72, 71
14, 16, 17, 24, 23, 65, 66, 73, 72
15, 17, 18, 25, 24, 66, 67, 74, 73
16, 18, 19, 26, 25, 67, 68, 75, 74
17, 19, 20, 27, 26, 68, 69, 76, 75
18, 20, 21, 28, 27, 69, 70, 77, 76
19, 22, 23, 30, 29, 71, 72, 79, 78
20, 23, 24, 31, 30, 72, 73, 80, 79
21, 24, 25, 32, 31, 73, 74, 81, 80
22, 25, 26, 33, 32, 74, 75, 82, 81
23, 26, 27, 34, 33, 75, 76, 83, 82
24, 27, 28, 35, 34, 76, 77, 84, 83
25, 29, 30, 37, 36, 78, 79, 86, 85
26, 30, 31, 38, 37, 79, 80, 87, 86
27, 31, 32, 39, 38, 80, 81, 88, 87
28, 32, 33, 40, 39, 81, 82, 89, 88
29, 33, 34, 41, 40, 82, 83, 90, 89
30, 34, 35, 42, 41, 83, 84, 91, 90
31, 36, 37, 44, 43, 85, 86, 93, 92
32, 37, 38, 45, 44, 86, 87, 94, 93
33, 38, 39, 46, 45, 87, 88, 95, 94
34, 39, 40, 47, 46, 88, 89, 96, 95
35, 40, 41, 48, 47, 89, 90, 97, 96
36, 41, 42, 49, 48, 90, 91, 98, 97
37, 50, 51, 58, 57, 99, 100, 107, 106
38, 51, 52, 59, 58, 100, 101, 108, 107
39, 52, 53, 60, 59, 101, 102, 109, 108
40, 53, 54, 61, 60, 102, 103, 110, 109
41, 54, 55, 62, 61, 103, 104, 111, 110
42, 55, 56, 63, 62, 104, 105, 112, 111
43, 57, 58, 65, 64, 106, 107, 114, 113
44, 58, 59, 66, 65, 107, 108, 115, 114
45, 59, 60, 67, 66, 108, 109, 116, 115
46, 60, 61, 68, 67, 109, 110, 117, 116
47, 61, 62, 69, 68, 110, 111, 118, 117
48, 62, 63, 70, 69, 111, 112, 119, 118
49, 64, 65, 72, 71, 113, 114, 121, 120
50, 65, 66, 73, 72, 114, 115, 122, 121
51, 66, 67, 74, 73, 115, 116, 123, 122
52, 67, 68, 75, 74, 116, 117, 124, 123
53, 68, 69, 76, 75, 117, 118, 125, 124
54, 69, 70, 77, 76, 118, 119, 126, 125
55, 71, 72, 79, 78, 120, 121, 128, 127
56, 72, 73, 80, 79, 121, 122, 129, 128
57, 73, 74, 81, 80, 122, 123, 130, 129
58, 74, 75, 82, 81, 123, 124, 131, 130
59, 75, 76, 83, 82, 124, 125, 132, 131
60, 76, 77, 84, 83, 125, 126, 133, 132
61, 78, 79, 86, 85, 127, 128, 135, 134
62, 79, 80, 87, 86, 128, 129, 136, 135
63, 80, 81, 88, 87, 129, 130, 137, 136
64, 81, 82, 89, 88, 130, 131, 138, 137
65, 82, 83, 90, 89, 131, 132, 139, 138
66, 83, 84, 91, 90, 132, 133, 140, 139
67, 85, 86, 93, 92, 134, 135, 142, 141
68, 86, 87, 94, 93, 135, 136, 143, 142
69, 87, 88, 95, 94, 136, 137, 144, 143
70, 88, 89, 96, 95, 137, 138, 145, 144
71, 89, 90, 97, 96, 138, 139, 146, 145
72, 90, 91, 98, 97, 139, 140, 147, 146
73, 99, 100, 107, 106, 148, 149, 156, 155
74, 100, 101, 108, 107, 149, 150, 157, 156
75, 101, 102, 109, 108, 150, 151, 158, 157
76, 102, 103, 110, 109, 151, 152, 159, 158
77, 103, 104, 111, 110, 152, 153, 160, 159
78, 104, 105, 112, 111, 153, 154, 161, 160
79, 106, 107, 114, 113, 155, 156, 163, 162
80, 107, 108, 115, 114, 156, 157, 164, 163
81, 108, 109, 116, 115, 157, 158, 165, 164
82, 109, 110, 117, 116, 158, 159, 166, 165
83, 110, 111, 118, 117, 159, 160, 167, 166
84, 111, 112, 119, 118, 160, 161, 168, 167
85, 113, 114, 121, 120, 162, 163, 170, 169
86, 114, 115, 122, 121, 163, 164, 171, 170
87, 115, 116, 123, 122, 164, 165, 172, 171
88, 116, 117, 124, 123, 165, 166, 173, 172
89, 117, 118, 125, 124, 166, 167, 174, 173
90, 118, 119, 126, 125, 167, 168, 175, 174
91, 120, 121, 128, 127, 169, 170, 177, 176
92, 121, 122, 129, 128, 170, 171, 178, 177
93, 122, 123, 130, 129, 171, 172, 179, 178
94, 123, 124, 131, 130, 172, 173, 180, 179
95, 124, 125, 132, 131, 173, 174, 181, 180
96, 125, 126, 133, 132, 174, 175, 182, 181
97, 127, 128, 135, 134, 176, 177, 184, 183
98, 128, 129, 136, 135, 177, 178, 185, 184
99, 129, 130, 137, 136, 178, 179, 186, 185
100, 130, 131, 138, 137, 179, 180, 187, 186
101, 131, 132, 139, 138, 180, 181, 188, 187
102, 132, 133, 140, 139, 181, 182, 189, 188
103, 134, 135, 142, 141, 183, 184, 191, 190
104, 135, 136, 143, 142, 184, 185, 192, 191
105, 136, 137, 144, 143, 185, 186, 193, 192
106, 137, 138, 145, 144, 186, 187, 194, 193
107, 138, 139, 146, 145, 187, 188, 195, 194
108, 139, 140, 147, 146, 188, 189, 196, 195
109, 148, 149, 156, 155, 197, 198, 205, 204
110, 149, 150, 157, 156, 198, 199, 206, 205
111, 150, 151, 158, 157, 199, 200, 207, 206
112, 151, 152, 159, 158, 200, 201, 208, 207
113, 152, 153, 160, 159, 201, 202, 209, 208
114, 153, 154, 161, 160, 202, 203, 210, 209
115, 155, 156, 163, 162, 204, 205, 212, 211
116, 156, 157, 164, 163, 205, 206, 213, 212
117, 157, 158, 165, 164, 206, 207, 214, 213
118, 158, 159, 166, 165, 207, 208, 215, 214
119, 159, 160, 167, 166, 208, 209, 216, 215
120, 160, 161, 168, 167, 209, 210, 217, 216
121, 162, 163, 170, 169, 211, 212, 219, 218
122, 163, 164, 171, 170, 212, 213, 220, 219
123, 164, 165, 172, 171, 213, 214, 221, 220
124, 165, 166, 173, 172, 214, 215, 222, 221
125, 166, 167, 174, 173, 215, 216, 223, 222
126, 167, 168, 175, 174, 216, 217, 224, 223
127, 169, 170, 177, 176, 218, 219, 226, 225
128, 170, 171, 178, 177, 219, 220, 227, 226
129, 171, 172, 179, 178, 220, 221, 228, 227
130, 172, 173, 180, 179, 221, 222, 229, 228
131, 173, 174, 181, 180, 222, 223, 230, 229
132, 174, 175, 182, 181, 223, 224, 231, 230
133, 176, 177, 184, 183, 225, 226, 233, 232
134, 177, 178, 185, 184, 226, 227, 234, 233
135, 178, 179, 186, 185, 227, 228, 235, 234
136, 179, 180, 187, 186, 228, 229, 236, 235
137, 180, 181, 188, 187, 229, 230, 237, 236
138, 181, 182, 189, 188, 230, 231, 238, 237
139, 183, 184, 191, 190, 232, 233, 240, 239
140, 184, 185, 192, 191, 233, 234, 241, 240
141, 185, 186, 193, 192, 234, 235, 242, 241
142, 186, 187, 194, 193, 235, 236, 243, 242
143, 187, 188, 195, 194, 236, 237, 244, 243
144, 188, 189, 196, 195, 237, 238, 245, 244
145, 197, 198, 205, 204, 246, 247, 254, 253
146, 198, 199, 206, 205, 247, 248, 255, 254
147, 199, 200, 207, 206, 248, 249, 256, 255
148, 200, 201, 208, 207, 249, 250, 257, 256
149, 201, 202, 209, 208, 250, 251, 258, 257
150, 202, 203, 210, 209, 251, 252, 259, 258
151, 204, 205, 212, 211, 253, 254, 261, 260
152, 205, 206, 213, 212, 254, 255, 262, 261
153, 206, 207, 214, 213, 255, 256, 263, 262
154, 207, 208, 215, 214, 256, 257, 264, 263
155, 208, 209, 216, 215, 257, 258, 265, 264
156, 209, 210, 217, 216, 258, 259, 266, 265
157, 211, 212, 219, 218, 260, 261, 268, 267
158, 212, 213, 220, 219, 261, 262, 269, 268
159, 213, 214, 221, 220, 262, 263, 270, 269
160, 214, 215, 222, 221, 263, 264, 271, 270
161, 215, 216, 223, 222, 264, 265, 272, 271
162, 216, 217, 224, 223, 265, 266, 273, 272
163, 218, 219, 226, 225, 267, 268, 275, 274
164, 219, 220, 227, 226, 268, 269, 276, 275
165, 220, 221, 228, 227, 269, 270, 277, 276
166, 221, 222, 229, 228, 270, 271, 278, 277
167, 222, 223, 230, 229, 271, 272, 279, 278
168, 223, 224, 231, 230, 272, 273, 280, 279
169, 225, 226, 233, 232, 274, 275, 282, 281
170, 226, 227, 234, 233, 275, 276, 283, 282
171, 227, 228, 235, 234, 276, 277, 284, 283
172, 228, 229, 236, 235, 277, 278, 285, 284
173, 229, 230, 237, 236, 278, 279, 286, 285
174, 230, 231, 238, 237, 279, 280, 287, 286
175, 232, 233, 240, 239, 281, 282, 289, 288
176, 233, 234, 241, 240, 282, 283, 290, 289
177, 234, 235, 242, 241, 283, 284, 291, 290
178, 235, 236, 243, 242, 284, 285, 292, 291
179, 236, 237, 244, 243, 285, 286, 293, 292
180, 237, 238, 245, 244, 286, 287, 294, 293
181, 246, 247, 254, 253, 295, 296, 303, 302
182, 247, 248, 255, 254, 296, 297, 304, 303
183, 248, 249, 256, 255, 297, 298, 305, 304
184, 249, 250, 257, 256, 298, 299, 306, 305
185, 250, 251, 258, 257, 299, 300, 307, 306
186, 251, 252, 259, 258, 300, 301, 308, 307
187, 253, 254, 261, 260, 302, 303, 310, 309
188, 254, 255, 262, 261, 303, 304, 311, 310
189, 255, 256, 263, 262, 304, 305, 312, 311
190, 256, 257, 264, 263, 305, 306, 313, 312
191, 257, 258, 265, 264, 306, 307, 314, 313
192, 258, 259, 266, 265, 307, 308, 315, 314
193, 260, 261, 268, 267, 309, 310, 317, 316
194, 261, 262, 269, 268, 310, 311, 318, 317
195, 262, 263, 270, 269, 311, 312, 319, 318
196, 263, 264, 271, 270, 312, 313, 320, 319
197, 264, 265, 272, 271, 313, 314, 321, 320
198, 265, 266, 273, 272, 314, 315, 322, 321
199, 267, 268, 275, 274, 316, 317, 324, 323
200, 268, 269, 276, 275, 317, 318, 325, 324
201, 269, 270, 277, 276, 318, 319, 326, 325
202, 270, 271, 278, 277, 319, 320, 327, 326
203, 271, 272, 279, 278, 320, 321, 328, 327
204, 272, 273, 280, 279, 321, 322, 329, 328
205, 274, 275, 282, 281, 323, 324, 331, 330
206, 275, 276, 283, 282, 324, 325, 332, 331
207, 276, 277, 284, 283, 325, 326, 333, 332
208, 277, 278, 285, 284, 326, 327, 334, 333
209, 278, 279, 286, 285, 327, 328, 335, 334
210, 279, 280, 287, 286, 328, 329, 336, 335
211, 281, 282, 289, 288, 330, 331, 338, 337
212, 282, 283, 290, 289, 331, 332, 339, 338
213, 283, 284, 291, 290, 332, 333, 340, 339
214, 284, 285, 292, 291, 333, 334, 341, 340
215, 285, 286, 293, 292, 334, 335, 342, 341
216, 286, 287, 294, 293, 335, 336, 343, 342
*Section Controls, name=HG_UMAT, hourglass=ENHANCED
*Solid Section, elset=EALL, material=PLY_B, controls=HG_UMAT
0.3333333333333333,
*Material, name=PLY_B
*Depvar
62,
*User Material, constants=30, unsymm
141000 ,11400 ,11400 ,0.28 ,0.28 ,0.28 ,7100 ,7100
7100 ,2080 ,1250 ,60 ,290 ,110 ,110 ,110
133 ,10 ,0.5 ,1.6 ,1 ,0.9 ,0.5 ,0.0001
0.005 ,35 ,0.5 ,1 ,1 ,0
*Step, name=MESH, inc=10000, nlgeom=NO
*Static
0.005, 1., 1e-20, 0.1
*Amplitude, name=RAMP
0., 0.
1., 1.
*Boundary, amplitude=RAMP
1, 1, 1, 0
1, 2, 2, 0
1, 3, 3, 0
2, 1, 1, 0.0014762023153404
2, 2, 2, 1.5900411357942e-09
2, 3, 3, -7.6948353466832e-08
3, 1, 1, 0.0029524046306809
3, 2, 2, 3.1800822715885e-09
3, 3, 3, -1.5389670693366e-07
4, 1, 1, 0.0044286069460213
4, 2, 2, 4.7701234073827e-09
4, 3, 3, -2.308450604005e-07
5, 1, 1, 0.0059048092613618
5, 2, 2, 6.3601645431769e-09
5, 3, 3, -3.0779341386733e-07
6, 1, 1, 0.0073810115767022
6, 2, 2, 7.9502056789712e-09
6, 3, 3, -3.8474176733416e-07
7, 1, 1, 0.0088572138920426
7, 2, 2, 9.5402468147654e-09
7, 3, 3, -4.6169012080099e-07
8, 1, 1, 1.5900411357942e-09
8, 2, 2, 0.0027046861747901
8, 3, 3, 1.0865273865808e-09
9, 1, 1, 0.0014762039053816
9, 2, 2, 0.0027046877648312
9, 3, 3, -7.5861826080252e-08
10, 1, 1, 0.002952406220722
10, 2, 2, 0.0027046893548723
10, 3, 3, -1.5281017954708e-07
11, 1, 1, 0.0044286085360625
11, 2, 2, 0.0027046909449135
11, 3, 3, -2.2975853301392e-07
12, 1, 1, 0.0059048108514029
12, 2, 2, 0.0027046925349546
12, 3, 3, -3.0670688648075e-07
13, 1, 1, 0.0073810131667433
13, 2, 2, 0.0027046941249957
13, 3, 3, -3.8365523994758e-07
14, 1, 1, 0.0088572154820838
14, 2, 2, 0.0027046957150369
14, 3, 3, -4.6060359341441e-07
15, 1, 1, 3.1800822715885e-09
15, 2, 2, 0.0054093723495801
15, 3, 3, 2.1730547731617e-09
16, 1, 1, 0.0014762054954227
16, 2, 2, 0.0054093739396213
16, 3, 3, -7.4775298693671e-08
17, 1, 1, 0.0029524078107632
17, 2, 2, 0.0054093755296624
17, 3, 3, -1.517236521605e-07
18, 1, 1, 0.0044286101261036
18, 2, 2, 0.0054093771197035
18, 3, 3, -2.2867200562734e-07
19, 1, 1, 0.005904812441444
19, 2, 2, 0.0054093787097447
19, 3, 3, -3.0562035909417e-07
20, 1, 1, 0.0073810147567845
20, 2, 2, 0.0054093802997858
20, 3, 3, -3.82568712561e-07
21, 1, 1, 0.0088572170721249
21, 2, 2, 0.0054093818898269
21, 3, 3, -4.5951706602783e-07
22, 1, 1, 4.7701234073827e-09
22, 2, 2, 0.0081140585243702
22, 3, 3, 3.2595821597425e-09
23, 1, 1, 0.0014762070854638
23, 2, 2, 0.0081140601144113
23, 3, 3, -7.368877130709e-08
24, 1, 1, 0.0029524094008043
24, 2, 2, 0.0081140617044525
24, 3, 3, -1.5063712477392e-07
25, 1, 1, 0.0044286117161447
25, 2, 2, 0.0081140632944936
25, 3, 3, -2.2758547824075e-07
26, 1, 1, 0.0059048140314852
26, 2, 2, 0.0081140648845347
26, 3, 3, -3.0453383170759e-07
27, 1, 1, 0.0073810163468256
27, 2, 2, 0.0081140664745759
27, 3, 3, -3.8148218517442e-07
28, 1, 1, 0.008857218662166
28, 2, 2, 0.008114068064617
28, 3, 3, -4.5843053864125e-07
29, 1, 1, 6.3601645431769e-09
29, 2, 2, 0.01081874469916
29, 3, 3, 4.3461095463234e-09
30, 1, 1, 0.001476208675505
30, 2, 2, 0.010818746289201
30, 3, 3, -7.2602243920509e-08
31, 1, 1, 0.0029524109908454
31, 2, 2, 0.010818747879243
31, 3, 3, -1.4955059738734e-07
32, 1, 1, 0.0044286133061859
32, 2, 2, 0.010818749469284
32, 3, 3, -2.2649895085417e-07
33, 1, 1, 0.0059048156215263
33, 2, 2, 0.010818751059325
33, 3, 3, -3.0344730432101e-07
34, 1, 1, 0.0073810179368667
34, 2, 2, 0.010818752649366
34, 3, 3, -3.8039565778784e-07
35, 1, 1, 0.0088572202522072
35, 2, 2, 0.010818754239407
35, 3, 3, -4.5734401125467e-07
36, 1, 1, 7.9502056789712e-09
36, 2, 2, 0.01352343087395
36, 3, 3, 5.4326369329042e-09
37, 1, 1, 0.0014762102655461
37, 2, 2, 0.013523432463991
37, 3, 3, -7.1515716533928e-08
38, 1, 1, 0.0029524125808866
38, 2, 2, 0.013523434054033
38, 3, 3, -1.4846407000076e-07
39, 1, 1, 0.004428614896227
39, 2, 2, 0.013523435644074
39, 3, 3, -2.2541242346759e-07
40, 1, 1, 0.0059048172115674
40, 2, 2, 0.013523437234115
40, 3, 3, -3.0236077693443e-07
41, 1, 1, 0.0073810195269079
41, 2, 2, 0.013523438824156
41, 3, 3, -3.7930913040126e-07
42, 1, 1, 0.0088572218422483
42, 2, 2, 0.013523440414197
42, 3, 3, -4.5625748386809e-07
43, 1, 1, 9.5402468147654e-09
43, 2, 2, 0.01622811704874
43, 3, 3, 6.5191643194851e-09
44, 1, 1, 0.0014762118555873
44, 2, 2, 0.016228118638782
44, 3, 3, -7.0429189147347e-08
45, 1, 1, 0.0029524141709277
45, 2, 2, 0.016228120228823
45, 3, 3, -1.4737754261418e-07
46, 1, 1, 0.0044286164862681
46, 2, 2, 0.016228121818864
46, 3, 3, -2.2432589608101e-07
47, 1, 1, 0.0059048188016086
47, 2, 2, 0.016228123408905
47, 3, 3, -3.0127424954784e-07
48, 1, 1, 0.007381021116949
48, 2, 2, 0.016228124998946
48, 3, 3, -3.7822260301468e-07
49, 1, 1, 0.0088572234322895
49, 2, 2, 0.016228126588987
49, 3, 3, -4.5517095648151e-07
50, 1, 1, -7.6948353466832e-08
50, 2, 2, 1.0865273865808e-09
50, 3, 3, -0.01285299907128
51, 1, 1, 0.001476125366987
51, 2, 2, 2.6765685223751e-09
51, 3, 3, -0.012853076019634
52, 1, 1, 0.0029523276823274
52, 2, 2, 4.2666096581693e-09
52, 3, 3, -0.012853152967987
53, 1, 1, 0.0044285299976679
53, 2, 2, 5.8566507939635e-09
53, 3, 3, -0.012853229916341
54, 1, 1, 0.0059047323130083
54, 2, 2, 7.4466919297578e-09
54, 3, 3, -0.012853306864694
55, 1, 1, 0.0073809346283487
55, 2, 2, 9.036733065552e-09
55, 3, 3, -0.012853383813047
56, 1, 1, 0.0088571369436892
56, 2, 2, 1.0626774201346e-08
56, 3, 3, -0.012853460761401
57, 1, 1, -7.5358312331038e-08
57, 2, 2, 0.0027046872613175
57, 3, 3, -0.012852997984753
58, 1, 1, 0.0014761269570281
58, 2, 2, 0.0027046888513586
58, 3, 3, -0.012853074933106
59, 1, 1, 0.0029523292723685
59, 2, 2, 0.0027046904413997
59, 3, 3, -0.01285315188146
60, 1, 1, 0.004428531587709
60, 2, 2, 0.0027046920314409
60, 3, 3, -0.012853228829813
61, 1, 1, 0.0059047339030494
61, 2, 2, 0.002704693621482
61, 3, 3, -0.012853305778167
62, 1, 1, 0.0073809362183899
62, 2, 2, 0.0027046952115231
62, 3, 3, -0.01285338272652
63, 1, 1, 0.0088571385337303
63, 2, 2, 0.0027046968015643
63, 3, 3, -0.012853459674874
64, 1, 1, -7.3768271195244e-08
64, 2, 2, 0.0054093734361075
64, 3, 3, -0.012852996898225
65, 1, 1, 0.0014761285470692
65, 2, 2, 0.0054093750261487
65, 3, 3, -0.012853073846579
66, 1, 1, 0.0029523308624097
66, 2, 2, 0.0054093766161898
66, 3, 3, -0.012853150794932
67, 1, 1, 0.0044285331777501
67, 2, 2, 0.0054093782062309
67, 3, 3, -0.012853227743286
68, 1, 1, 0.0059047354930906
68, 2, 2, 0.0054093797962721
68, 3, 3, -0.012853304691639
69, 1, 1, 0.007380937808431
69, 2, 2, 0.0054093813863132
69, 3, 3, -0.012853381639993
70, 1, 1, 0.0088571401237714
70, 2, 2, 0.0054093829763543
70, 3, 3, -0.012853458588346
71, 1, 1, -7.217823005945e-08
71, 2, 2, 0.0081140596108976
71, 3, 3, -0.012852995811698
72, 1, 1, 0.0014761301371104
72, 2, 2, 0.0081140612009387
72, 3, 3, -0.012853072760051
73, 1, 1, 0.0029523324524508
73, 2, 2, 0.0081140627909799
73, 3, 3, -0.012853149708405
74, 1, 1, 0.0044285347677913
74, 2, 2, 0.008114064381021
74, 3, 3, -0.012853226656758
75, 1, 1, 0.0059047370831317
75, 2, 2, 0.0081140659710621
75, 3, 3, -0.012853303605112
76, 1, 1, 0.0073809393984721
76, 2, 2, 0.0081140675611033
76, 3, 3, -0.012853380553465
77, 1, 1, 0.0088571417138126
77, 2, 2, 0.0081140691511444
77, 3, 3, -0.012853457501819
78, 1, 1, -7.0588188923656e-08
78, 2, 2, 0.010818745785688
78, 3, 3, -0.012852994725171
79, 1, 1, 0.0014761317271515
79, 2, 2, 0.010818747375729
79, 3, 3, -0.012853071673524
80, 1, 1, 0.002952334042492
80, 2, 2, 0.01081874896577
80, 3, 3, -0.012853148621878
81, 1, 1, 0.0044285363578324
81, 2, 2, 0.010818750555811
81, 3, 3, -0.012853225570231
82, 1, 1, 0.0059047386731728
82, 2, 2, 0.010818752145852
82, 3, 3, -0.012853302518584
83, 1, 1, 0.0073809409885133
83, 2, 2, 0.010818753735893
83, 3, 3, -0.012853379466938
84, 1, 1, 0.0088571433038537
84, 2, 2, 0.010818755325934
84, 3, 3, -0.012853456415291
85, 1, 1, -6.8998147787861e-08
85, 2, 2, 0.013523431960478
85, 3, 3, -0.012852993638643
86, 1, 1, 0.0014761333171927
86, 2, 2, 0.013523433550519
86, 3, 3, -0.012853070586997
87, 1, 1, 0.0029523356325331
87, 2, 2, 0.01352343514056
87, 3, 3, -0.01285314753535
88, 1, 1, 0.0044285379478735
88, 2, 2, 0.013523436730601
88, 3, 3, -0.012853224483704
89, 1, 1, 0.005904740263214
89, 2, 2, 0.013523438320642
89, 3, 3, -0.012853301432057
90, 1, 1, 0.0073809425785544
90, 2, 2, 0.013523439910683
90, 3, 3, -0.012853378380411
91, 1, 1, 0.0088571448938948
91, 2, 2, 0.013523441500725
91, 3, 3, -0.012853455328764
92, 1, 1, -6.7408106652067e-08
92, 2, 2, 0.016228118135268
92, 3, 3, -0.012852992552116
93, 1, 1, 0.0014761349072338
93, 2, 2, 0.016228119725309
93, 3, 3, -0.012853069500469
94, 1, 1, 0.0029523372225742
94, 2, 2, 0.01622812131535
94, 3, 3, -0.012853146448823
95, 1, 1, 0.0044285395379147
95, 2, 2, 0.016228122905391
95, 3, 3, -0.012853223397176
96, 1, 1, 0.0059047418532551
96, 2, 2, 0.016228124495432
96, 3, 3, -0.01285330034553
97, 1, 1, 0.0073809441685955
97, 2, 2, 0.016228126085473
97, 3, 3, -0.012853377293883
98, 1, 1, 0.008857146483936
98, 2, 2, 0.016228127675515
98, 3, 3, -0.012853454242237
99, 1, 1, -1.5389670693366e-07
99, 2, 2, 2.1730547731617e-09
99, 3, 3, -0.02570599814256
100, 1, 1, 0.0014760484186335
100, 2, 2, 3.7630959089559e-09
100, 3, 3, -0.025706075090914
101, 1, 1, 0.0029522507339739
101, 2, 2, 5.3531370447502e-09
101, 3, 3, -0.025706152039267
102, 1, 1, 0.0044284530493144
102, 2, 2, 6.9431781805444e-09
102, 3, 3, -0.025706228987621
103, 1, 1, 0.0059046553646548
103, 2, 2, 8.5332193163386e-09
103, 3, 3, -0.025706305935974
104, 1, 1, 0.0073808576799953
104, 2, 2, 1.0123260452133e-08
104, 3, 3, -0.025706382884328
105, 1, 1, 0.0088570599953357
105, 2, 2, 1.1713301587927e-08
105, 3, 3, -0.025706459832681
106, 1, 1, -1.5230666579787e-07
106, 2, 2, 0.0027046883478448
106, 3, 3, -0.025705997056033
107, 1, 1, 0.0014760500086746
107, 2, 2, 0.002704689937886
107, 3, 3, -0.025706074004386
108, 1, 1, 0.0029522523240151
108, 2, 2, 0.0027046915279271
108, 3, 3, -0.02570615095274
109, 1, 1, 0.0044284546393555
109, 2, 2, 0.0027046931179682
109, 3, 3, -0.025706227901093
110, 1, 1, 0.005904656954696
110, 2, 2, 0.0027046947080094
110, 3, 3, -0.025706304849447
111, 1, 1, 0.0073808592700364
111, 2, 2, 0.0027046962980505
111, 3, 3, -0.0257063817978
112, 1, 1, 0.0088570615853768
112, 2, 2, 0.0027046978880917
112, 3, 3, -0.025706458746154
113, 1, 1, -1.5071662466208e-07
113, 2, 2, 0.0054093745226349
113, 3, 3, -0.025705995969506
114, 1, 1, 0.0014760515987158
114, 2, 2, 0.005409376112676
114, 3, 3, -0.025706072917859
115, 1, 1, 0.0029522539140562
115, 2, 2, 0.0054093777027172
115, 3, 3, -0.025706149866212
116, 1, 1, 0.0044284562293967
116, 2, 2, 0.0054093792927583
116, 3, 3, -0.025706226814566
117, 1, 1, 0.0059046585447371
117, 2, 2, 0.0054093808827994
117, 3, 3, -0.025706303762919
118, 1, 1, 0.0073808608600775
118, 2, 2, 0.0054093824728406
118, 3, 3, -0.025706380711273
119, 1, 1, 0.008857063175418
119, 2, 2, 0.0054093840628817
119, 3, 3, -0.025706457659626
120, 1, 1, -1.4912658352628e-07
120, 2, 2, 0.008114060697425
120, 3, 3, -0.025705994882978
121, 1, 1, 0.0014760531887569
121, 2, 2, 0.0081140622874661
121, 3, 3, -0.025706071831332
122, 1, 1, 0.0029522555040974
122, 2, 2, 0.0081140638775072
122, 3, 3, -0.025706148779685
123, 1, 1, 0.0044284578194378
123, 2, 2, 0.0081140654675484
123, 3, 3, -0.025706225728039
124, 1, 1, 0.0059046601347782
124, 2, 2, 0.0081140670575895
124, 3, 3, -0.025706302676392
125, 1, 1, 0.0073808624501187
125, 2, 2, 0.0081140686476306
125, 3, 3, -0.025706379624745
126, 1, 1, 0.0088570647654591
126, 2, 2, 0.0081140702376718
126, 3, 3, -0.025706456573099
127, 1, 1, -1.4753654239049e-07
127, 2, 2, 0.010818746872215
127, 3, 3, -0.025705993796451
128, 1, 1, 0.001476054778798
128, 2, 2, 0.010818748462256
128, 3, 3, -0.025706070744804
129, 1, 1, 0.0029522570941385
129, 2, 2, 0.010818750052297
129, 3, 3, -0.025706147693158
130, 1, 1, 0.0044284594094789
130, 2, 2, 0.010818751642338
130, 3, 3, -0.025706224641511
131, 1, 1, 0.0059046617248194
131, 2, 2, 0.01081875323238
131, 3, 3, -0.025706301589865
132, 1, 1, 0.0073808640401598
132, 2, 2, 0.010818754822421
132, 3, 3, -0.025706378538218
133, 1, 1, 0.0088570663555002
133, 2, 2, 0.010818756412462
133, 3, 3, -0.025706455486572
134, 1, 1, -1.4594650125469e-07
134, 2, 2, 0.013523433047005
134, 3, 3, -0.025705992709923
135, 1, 1, 0.0014760563688392
135, 2, 2, 0.013523434637046
135, 3, 3, -0.025706069658277
136, 1, 1, 0.0029522586841796
136, 2, 2, 0.013523436227087
136, 3, 3, -0.02570614660663
137, 1, 1, 0.0044284609995201
137, 2, 2, 0.013523437817129
137, 3, 3, -0.025706223554984
138, 1, 1, 0.0059046633148605
138, 2, 2, 0.01352343940717
138, 3, 3, -0.025706300503337
139, 1, 1, 0.0073808656302009
139, 2, 2, 0.013523440997211
139, 3, 3, -0.025706377451691
140, 1, 1, 0.0088570679455414
140, 2, 2, 0.013523442587252
140, 3, 3, -0.025706454400044
141, 1, 1, -1.443564601189e-07
141, 2, 2, 0.016228119221795
141, 3, 3, -0.025705991623396
142, 1, 1, 0.0014760579588803
142, 2, 2, 0.016228120811836
142, 3, 3, -0.025706068571749
143, 1, 1, 0.0029522602742208
143, 2, 2, 0.016228122401877
143, 3, 3, -0.025706145520103
144, 1, 1, 0.0044284625895612
144, 2, 2, 0.016228123991919
144, 3, 3, -0.025706222468456
145, 1, 1, 0.0059046649049016
145, 2, 2, 0.01622812558196
145, 3, 3, -0.02570629941681
146, 1, 1, 0.0073808672202421
146, 2, 2, 0.016228127172001
146, 3, 3, -0.025706376365163
147, 1, 1, 0.0088570695355825
147, 2, 2, 0.016228128762042
147, 3, 3, -0.025706453313517
148, 1, 1, -2.308450604005e-07
148, 2, 2, 3.2595821597425e-09
148, 3, 3, -0.03855899721384
149, 1, 1, 0.00147597147028
149, 2, 2, 4.8496232955368e-09
149, 3, 3, -0.038559074162194
150, 1, 1, 0.0029521737856205
150, 2, 2, 6.439664431331e-09
150, 3, 3, -0.038559151110547
151, 1, 1, 0.0044283761009609
151, 2, 2, 8.0297055671252e-09
151, 3, 3, -0.038559228058901
152, 1, 1, 0.0059045784163014
152, 2, 2, 9.6197467029195e-09
152, 3, 3, -0.038559305007254
153, 1, 1, 0.0073807807316418
153, 2, 2, 1.1209787838714e-08
153, 3, 3, -0.038559381955608
154, 1, 1, 0.0088569830469822
154, 2, 2, 1.2799828974508e-08
154, 3, 3, -0.038559458903961
155, 1, 1, -2.292550192647e-07
155, 2, 2, 0.0027046894343722
155, 3, 3, -0.038558996127313
156, 1, 1, 0.0014759730603212
156, 2, 2, 0.0027046910244134
156, 3, 3, -0.038559073075667
157, 1, 1, 0.0029521753756616
157, 2, 2, 0.0027046926144545
157, 3, 3, -0.03855915002402
158, 1, 1, 0.0044283776910021
158, 2, 2, 0.0027046942044956
158, 3, 3, -0.038559226972373
159, 1, 1, 0.0059045800063425
159, 2, 2, 0.0027046957945368
159, 3, 3, -0.038559303920727
160, 1, 1, 0.0073807823216829
160, 2, 2, 0.0027046973845779
160, 3, 3, -0.03855938086908
161, 1, 1, 0.0088569846370234
161, 2, 2, 0.002704698974619
161, 3, 3, -0.038559457817434
162, 1, 1, -2.2766497812891e-07
162, 2, 2, 0.0054093756091623
162, 3, 3, -0.038558995040786
163, 1, 1, 0.0014759746503623
163, 2, 2, 0.0054093771992034
163, 3, 3, -0.038559071989139
164, 1, 1, 0.0029521769657027
164, 2, 2, 0.0054093787892446
164, 3, 3, -0.038559148937493
165, 1, 1, 0.0044283792810432
165, 2, 2, 0.0054093803792857
165, 3, 3, -0.038559225885846
166, 1, 1, 0.0059045815963836
166, 2, 2, 0.0054093819693268
166, 3, 3, -0.0385593028342
167, 1, 1, 0.0073807839117241
167, 2, 2, 0.005409383559368
167, 3, 3, -0.038559379782553
168, 1, 1, 0.0088569862270645
168, 2, 2, 0.0054093851494091
168, 3, 3, -0.038559456730907
169, 1, 1, -2.2607493699311e-07
169, 2, 2, 0.0081140617839524
169, 3, 3, -0.038558993954258
170, 1, 1, 0.0014759762404034
170, 2, 2, 0.0081140633739935
170, 3, 3, -0.038559070902612
171, 1, 1, 0.0029521785557439
171, 2, 2, 0.0081140649640346
171, 3, 3, -0.038559147850965
172, 1, 1, 0.0044283808710843
172, 2, 2, 0.0081140665540758
172, 3, 3, -0.038559224799319
173, 1, 1, 0.0059045831864248
173, 2, 2, 0.0081140681441169
173, 3, 3, -0.038559301747672
174, 1, 1, 0.0073807855017652
174, 2, 2, 0.008114069734158
174, 3, 3, -0.038559378696026
175, 1, 1, 0.0088569878171056
175, 2, 2, 0.0081140713241992
175, 3, 3, -0.038559455644379
176, 1, 1, -2.2448489585732e-07
176, 2, 2, 0.010818747958742
176, 3, 3, -0.038558992867731
177, 1, 1, 0.0014759778304446
177, 2, 2, 0.010818749548784
177, 3, 3, -0.038559069816084
178, 1, 1, 0.002952180145785
178, 2, 2, 0.010818751138825
178, 3, 3, -0.038559146764438
179, 1, 1, 0.0044283824611255
179, 2, 2, 0.010818752728866
179, 3, 3, -0.038559223712791
180, 1, 1, 0.0059045847764659
180, 2, 2, 0.010818754318907
180, 3, 3, -0.038559300661145
181, 1, 1, 0.0073807870918063
181, 2, 2, 0.010818755908948
181, 3, 3, -0.038559377609498
182, 1, 1, 0.0088569894071468
182, 2, 2, 0.010818757498989
182, 3, 3, -0.038559454557852
183, 1, 1, -2.2289485472153e-07
183, 2, 2, 0.013523434133532
183, 3, 3, -0.038558991781204
184, 1, 1, 0.0014759794204857
184, 2, 2, 0.013523435723574
184, 3, 3, -0.038559068729557
185, 1, 1, 0.0029521817358262
185, 2, 2, 0.013523437313615
185, 3, 3, -0.03855914567791
186, 1, 1, 0.0044283840511666
186, 2, 2, 0.013523438903656
186, 3, 3, -0.038559222626264
187, 1, 1, 0.005904586366507
187, 2, 2, 0.013523440493697
187, 3, 3, -0.038559299574617
188, 1, 1, 0.0073807886818475
188, 2, 2, 0.013523442083738
188, 3, 3, -0.038559376522971
189, 1, 1, 0.0088569909971879
189, 2, 2, 0.013523443673779
189, 3, 3, -0.038559453471324
190, 1, 1, -2.2130481358573e-07
190, 2, 2, 0.016228120308323
190, 3, 3, -0.038558990694676
191, 1, 1, 0.0014759810105269
191, 2, 2, 0.016228121898364
191, 3, 3, -0.03855906764303
192, 1, 1, 0.0029521833258673
192, 2, 2, 0.016228123488405
192, 3, 3, -0.038559144591383
193, 1, 1, 0.0044283856412077
193, 2, 2, 0.016228125078446
193, 3, 3, -0.038559221539737
194, 1, 1, 0.0059045879565482
194, 2, 2, 0.016228126668487
194, 3, 3, -0.03855929848809
195, 1, 1, 0.0073807902718886
195, 2, 2, 0.016228128258528
195, 3, 3, -0.038559375436443
196, 1, 1, 0.0088569925872291
196, 2, 2, 0.016228129848569
196, 3, 3, -0.038559452384797
197, 1, 1, -3.0779341386733e-07
197, 2, 2, 4.3461095463234e-09
197, 3, 3, -0.051411996285121
198, 1, 1, 0.0014758945219266
198, 2, 2, 5.9361506821176e-09
198, 3, 3, -0.051412073233474
199, 1, 1, 0.002952096837267
199, 2, 2, 7.5261918179118e-09
199, 3, 3, -0.051412150181828
200, 1, 1, 0.0044282991526075
200, 2, 2, 9.1162329537061e-09
200, 3, 3, -0.051412227130181
201, 1, 1, 0.0059045014679479
201, 2, 2, 1.07062740895e-08
201, 3, 3, -0.051412304078535
202, 1, 1, 0.0073807037832883
202, 2, 2, 1.2296315225295e-08
202, 3, 3, -0.051412381026888
203, 1, 1, 0.0088569060986288
203, 2, 2, 1.3886356361089e-08
203, 3, 3, -0.051412457975241
204, 1, 1, -3.0620337273154e-07
204, 2, 2, 0.0027046905208996
204, 3, 3, -0.051411995198593
205, 1, 1, 0.0014758961119677
205, 2, 2, 0.0027046921109407
205, 3, 3, -0.051412072146947
206, 1, 1, 0.0029520984273081
206, 2, 2, 0.0027046937009819
206, 3, 3, -0.0514121490953
207, 1, 1, 0.0044283007426486
207, 2, 2, 0.002704695291023
207, 3, 3, -0.051412226043654
208, 1, 1, 0.005904503057989
208, 2, 2, 0.0027046968810642
208, 3, 3, -0.051412302992007
209, 1, 1, 0.0073807053733295
209, 2, 2, 0.0027046984711053
209, 3, 3, -0.051412379940361
210, 1, 1, 0.0088569076886699
210, 2, 2, 0.0027047000611464
210, 3, 3, -0.051412456888714
211, 1, 1, -3.0461333159574e-07
211, 2, 2, 0.0054093766956897
211, 3, 3, -0.051411994112066
212, 1, 1, 0.0014758977020088
212, 2, 2, 0.0054093782857308
212, 3, 3, -0.051412071060419
213, 1, 1, 0.0029521000173493
213, 2, 2, 0.0054093798757719
213, 3, 3, -0.051412148008773
214, 1, 1, 0.0044283023326897
214, 2, 2, 0.0054093814658131
214, 3, 3, -0.051412224957126
215, 1, 1, 0.0059045046480302
215, 2, 2, 0.0054093830558542
215, 3, 3, -0.05141230190548
216, 1, 1, 0.0073807069633706
216, 2, 2, 0.0054093846458954
216, 3, 3, -0.051412378853833
217, 1, 1, 0.008856909278711
217, 2, 2, 0.0054093862359365
217, 3, 3, -0.051412455802187
218, 1, 1, -3.0302329045995e-07
218, 2, 2, 0.0081140628704797
218, 3, 3, -0.051411993025538
219, 1, 1, 0.00147589929205
219, 2, 2, 0.0081140644605209
219, 3, 3, -0.051412069973892
220, 1, 1, 0.0029521016073904
220, 2, 2, 0.008114066050562
220, 3, 3, -0.051412146922245
221, 1, 1, 0.0044283039227309
221, 2, 2, 0.0081140676406031
221, 3, 3, -0.051412223870599
222, 1, 1, 0.0059045062380713
222, 2, 2, 0.0081140692306443
222, 3, 3, -0.051412300818952
223, 1, 1, 0.0073807085534117
223, 2, 2, 0.0081140708206854
223, 3, 3, -0.051412377767306
224, 1, 1, 0.0088569108687522
224, 2, 2, 0.0081140724107266
224, 3, 3, -0.051412454715659
225, 1, 1, -3.0143324932415e-07
225, 2, 2, 0.01081874904527
225, 3, 3, -0.051411991939011
226, 1, 1, 0.0014759008820911
226, 2, 2, 0.010818750635311
226, 3, 3, -0.051412068887365
227, 1, 1, 0.0029521031974316
227, 2, 2, 0.010818752225352
227, 3, 3, -0.051412145835718
228, 1, 1, 0.004428305512772
228, 2, 2, 0.010818753815393
228, 3, 3, -0.051412222784071
229, 1, 1, 0.0059045078281124
229, 2, 2, 0.010818755405434
229, 3, 3, -0.051412299732425
230, 1, 1, 0.0073807101434529
230, 2, 2, 0.010818756995475
230, 3, 3, -0.051412376680778
231, 1, 1, 0.0088569124587933
231, 2, 2, 0.010818758585517
231, 3, 3, -0.051412453629132
232, 1, 1, -2.9984320818836e-07
232, 2, 2, 0.01352343522006
232, 3, 3, -0.051411990852484
233, 1, 1, 0.0014759024721323
233, 2, 2, 0.013523436810101
233, 3, 3, -0.051412067800837
234, 1, 1, 0.0029521047874727
234, 2, 2, 0.013523438400142
234, 3, 3, -0.051412144749191
235, 1, 1, 0.0044283071028131
235, 2, 2, 0.013523439990183
235, 3, 3, -0.051412221697544
236, 1, 1, 0.0059045094181536
236, 2, 2, 0.013523441580224
236, 3, 3, -0.051412298645898
237, 1, 1, 0.007380711733494
237, 2, 2, 0.013523443170266
237, 3, 3, -0.051412375594251
238, 1, 1, 0.0088569140488344
238, 2, 2, 0.013523444760307
238, 3, 3, -0.051412452542605
239, 1, 1, -2.9825316705256e-07
239, 2, 2, 0.01622812139485
239, 3, 3, -0.051411989765956
240, 1, 1, 0.0014759040621734
240, 2, 2, 0.016228122984891
240, 3, 3, -0.05141206671431
241, 1, 1, 0.0029521063775138
241, 2, 2, 0.016228124574932
241, 3, 3, -0.051412143662663
242, 1, 1, 0.0044283086928543
242, 2, 2, 0.016228126164973
242, 3, 3, -0.051412220611017
243, 1, 1, 0.0059045110081947
243, 2, 2, 0.016228127755014
243, 3, 3, -0.05141229755937
244, 1, 1, 0.0073807133235351
244, 2, 2, 0.016228129345056
244, 3, 3, -0.051412374507724
245, 1, 1, 0.0088569156388756
245, 2, 2, 0.016228130935097
245, 3, 3, -0.051412451456077
246, 1, 1, -3.8474176733416e-07
246, 2, 2, 5.4326369329042e-09
246, 3, 3, -0.064264995356401
247, 1, 1, 0.0014758175735731
247, 2, 2, 7.0226780686985e-09
247, 3, 3, -0.064265072304754
248, 1, 1, 0.0029520198889135
248, 2, 2, 8.6127192044927e-09
248, 3, 3, -0.064265149253108
249, 1, 1, 0.004428222204254
249, 2, 2, 1.0202760340287e-08
249, 3, 3, -0.064265226201461
250, 1, 1, 0.0059044245195944
250, 2, 2, 1.1792801476081e-08
250, 3, 3, -0.064265303149815
251, 1, 1, 0.0073806268349349
251, 2, 2, 1.3382842611875e-08
251, 3, 3, -0.064265380098168
252, 1, 1, 0.0088568291502753
252, 2, 2, 1.497288374767e-08
252, 3, 3, -0.064265457046522
253, 1, 1, -3.8315172619837e-07
253, 2, 2, 0.002704691607427
253, 3, 3, -0.064264994269873
254, 1, 1, 0.0014758191636142
254, 2, 2, 0.0027046931974681
254, 3, 3, -0.064265071218227
255, 1, 1, 0.0029520214789547
255, 2, 2, 0.0027046947875093
255, 3, 3, -0.06426514816658
256, 1, 1, 0.0044282237942951
256, 2, 2, 0.0027046963775504
256, 3, 3, -0.064265225114934
257, 1, 1, 0.0059044261096356
257, 2, 2, 0.0027046979675915
257, 3, 3, -0.064265302063287
258, 1, 1, 0.007380628424976
258, 2, 2, 0.0027046995576327
258, 3, 3, -0.064265379011641
259, 1, 1, 0.0088568307403164
259, 2, 2, 0.0027047011476738
259, 3, 3, -0.064265455959994
260, 1, 1, -3.8156168506257e-07
260, 2, 2, 0.0054093777822171
260, 3, 3, -0.064264993183346
261, 1, 1, 0.0014758207536554
261, 2, 2, 0.0054093793722582
261, 3, 3, -0.064265070131699
262, 1, 1, 0.0029520230689958
262, 2, 2, 0.0054093809622993
262, 3, 3, -0.064265147080053
263, 1, 1, 0.0044282253843363
263, 2, 2, 0.0054093825523405
263, 3, 3, -0.064265224028406
264, 1, 1, 0.0059044276996767
264, 2, 2, 0.0054093841423816
264, 3, 3, -0.06426530097676
265, 1, 1, 0.0073806300150171
265, 2, 2, 0.0054093857324227
265, 3, 3, -0.064265377925113
266, 1, 1, 0.0088568323303576
266, 2, 2, 0.0054093873224639
266, 3, 3, -0.064265454873467
267, 1, 1, -3.7997164392678e-07
267, 2, 2, 0.0081140639570071
267, 3, 3, -0.064264992096819
268, 1, 1, 0.0014758223436965
268, 2, 2, 0.0081140655470483
268, 3, 3, -0.064265069045172
269, 1, 1, 0.002952024659037
269, 2, 2, 0.0081140671370894
269, 3, 3, -0.064265145993526
270, 1, 1, 0.0044282269743774
270, 2, 2, 0.0081140687271305
270, 3, 3, -0.064265222941879
271, 1, 1, 0.0059044292897178
271, 2, 2, 0.0081140703171717
271, 3, 3, -0.064265299890233
272, 1, 1, 0.0073806316050583
272, 2, 2, 0.0081140719072128
272, 3, 3, -0.064265376838586
273, 1, 1, 0.0088568339203987
273, 2, 2, 0.0081140734972539
273, 3, 3, -0.064265453786939
274, 1, 1, -3.7838160279099e-07
274, 2, 2, 0.010818750131797
274, 3, 3, -0.064264991010291
275, 1, 1, 0.0014758239337376
275, 2, 2, 0.010818751721838
275, 3, 3, -0.064265067958645
276, 1, 1, 0.0029520262490781
276, 2, 2, 0.010818753311879
276, 3, 3, -0.064265144906998
277, 1, 1, 0.0044282285644185
277, 2, 2, 0.010818754901921
277, 3, 3, -0.064265221855352
278, 1, 1, 0.005904430879759
278, 2, 2, 0.010818756491962
278, 3, 3, -0.064265298803705
279, 1, 1, 0.0073806331950994
279, 2, 2, 0.010818758082003
279, 3, 3, -0.064265375752059
280, 1, 1, 0.0088568355104398
280, 2, 2, 0.010818759672044
280, 3, 3, -0.064265452700412
281, 1, 1, -3.7679156165519e-07
281, 2, 2, 0.013523436306587
281, 3, 3, -0.064264989923764
282, 1, 1, 0.0014758255237788
282, 2, 2, 0.013523437896628
282, 3, 3, -0.064265066872117
283, 1, 1, 0.0029520278391192
283, 2, 2, 0.01352343948667
283, 3, 3, -0.064265143820471
284, 1, 1, 0.0044282301544597
284, 2, 2, 0.013523441076711
284, 3, 3, -0.064265220768824
285, 1, 1, 0.0059044324698001
285, 2, 2, 0.013523442666752
285, 3, 3, -0.064265297717178
286, 1, 1, 0.0073806347851405
286, 2, 2, 0.013523444256793
286, 3, 3, -0.064265374665531
287, 1, 1, 0.008856837100481
287, 2, 2, 0.013523445846834
287, 3, 3, -0.064265451613885
288, 1, 1, -3.752015205194e-07
288, 2, 2, 0.016228122481377
288, 3, 3, -0.064264988837236
289, 1, 1, 0.0014758271138199
289, 2, 2, 0.016228124071418
289, 3, 3, -0.06426506578559
290, 1, 1, 0.0029520294291604
290, 2, 2, 0.01622812566146
290, 3, 3, -0.064265142733943
291, 1, 1, 0.0044282317445008
291, 2, 2, 0.016228127251501
291, 3, 3, -0.064265219682297
292, 1, 1, 0.0059044340598412
292, 2, 2, 0.016228128841542
292, 3, 3, -0.06426529663065
293, 1, 1, 0.0073806363751817
293, 2, 2, 0.016228130431583
293, 3, 3, -0.064265373579004
294, 1, 1, 0.0088568386905221
294, 2, 2, 0.016228132021624
294, 3, 3, -0.064265450527357
295, 1, 1, -4.6169012080099e-07
295, 2, 2, 6.5191643194851e-09
295, 3, 3, -0.077117994427681
296, 1, 1, 0.0014757406252196
296, 2, 2, 8.1092054552793e-09
296, 3, 3, -0.077118071376034
297, 1, 1, 0.0029519429405601
297, 2, 2, 9.6992465910735e-09
297, 3, 3, -0.077118148324388
298, 1, 1, 0.0044281452559005
298, 2, 2, 1.1289287726868e-08
298, 3, 3, -0.077118225272741
299, 1, 1, 0.005904347571241
299, 2, 2, 1.2879328862662e-08
299, 3, 3, -0.077118302221095
300, 1, 1, 0.0073805498865814
300, 2, 2, 1.4469369998456e-08
300, 3, 3, -0.077118379169448
301, 1, 1, 0.0088567522019218
301, 2, 2, 1.605941113425e-08
301, 3, 3, -0.077118456117802
302, 1, 1, -4.601000796652e-07
302, 2, 2, 0.0027046926939544
302, 3, 3, -0.077117993341154
303, 1, 1, 0.0014757422152608
303, 2, 2, 0.0027046942839955
303, 3, 3, -0.077118070289507
304, 1, 1, 0.0029519445306012
304, 2, 2, 0.0027046958740367
304, 3, 3, -0.077118147237861
305, 1, 1, 0.0044281468459417
305, 2, 2, 0.0027046974640778
305, 3, 3, -0.077118224186214
306, 1, 1, 0.0059043491612821
306, 2, 2, 0.0027046990541189
306, 3, 3, -0.077118301134567
307, 1, 1, 0.0073805514766225
307, 2, 2, 0.0027047006441601
307, 3, 3, -0.077118378082921
308, 1, 1, 0.008856753791963
308, 2, 2, 0.0027047022342012
308, 3, 3, -0.077118455031274
309, 1, 1, -4.5851003852941e-07
309, 2, 2, 0.0054093788687444
309, 3, 3, -0.077117992254626
310, 1, 1, 0.0014757438053019
310, 2, 2, 0.0054093804587856
310, 3, 3, -0.07711806920298
311, 1, 1, 0.0029519461206423
311, 2, 2, 0.0054093820488267
311, 3, 3, -0.077118146151333
312, 1, 1, 0.0044281484359828
312, 2, 2, 0.0054093836388679
312, 3, 3, -0.077118223099687
313, 1, 1, 0.0059043507513232
313, 2, 2, 0.005409385228909
313, 3, 3, -0.07711830004804
314, 1, 1, 0.0073805530666637
314, 2, 2, 0.0054093868189501
314, 3, 3, -0.077118376996394
315, 1, 1, 0.0088567553820041
315, 2, 2, 0.0054093884089913
315, 3, 3, -0.077118453944747
316, 1, 1, -4.5691999739361e-07
316, 2, 2, 0.0081140650435345
316, 3, 3, -0.077117991168099
317, 1, 1, 0.001475745395343
317, 2, 2, 0.0081140666335756
317, 3, 3, -0.077118068116452
318, 1, 1, 0.0029519477106835
318, 2, 2, 0.0081140682236168
318, 3, 3, -0.077118145064806
319, 1, 1, 0.0044281500260239
319, 2, 2, 0.0081140698136579
319, 3, 3, -0.077118222013159
320, 1, 1, 0.0059043523413644
320, 2, 2, 0.0081140714036991
320, 3, 3, -0.077118298961513
321, 1, 1, 0.0073805546567048
321, 2, 2, 0.0081140729937402
321, 3, 3, -0.077118375909866
322, 1, 1, 0.0088567569720452
322, 2, 2, 0.0081140745837813
322, 3, 3, -0.07711845285822
323, 1, 1, -4.5532995625782e-07
323, 2, 2, 0.010818751218325
323, 3, 3, -0.077117990081571
324, 1, 1, 0.0014757469853842
324, 2, 2, 0.010818752808366
324, 3, 3, -0.077118067029925
325, 1, 1, 0.0029519493007246
325, 2, 2, 0.010818754398407
325, 3, 3, -0.077118143978278
326, 1, 1, 0.0044281516160651
326, 2, 2, 0.010818755988448
326, 3, 3, -0.077118220926632
327, 1, 1, 0.0059043539314055
327, 2, 2, 0.010818757578489
327, 3, 3, -0.077118297874985
328, 1, 1, 0.0073805562467459
328, 2, 2, 0.01081875916853
328, 3, 3, -0.077118374823339
329, 1, 1, 0.0088567585620864
329, 2, 2, 0.010818760758571
329, 3, 3, -0.077118451771692
330, 1, 1, -4.5373991512202e-07
330, 2, 2, 0.013523437393115
330, 3, 3, -0.077117988995044
331, 1, 1, 0.0014757485754253
331, 2, 2, 0.013523438983156
331, 3, 3, -0.077118065943397
332, 1, 1, 0.0029519508907658
332, 2, 2, 0.013523440573197
332, 3, 3, -0.077118142891751
333, 1, 1, 0.0044281532061062
333, 2, 2, 0.013523442163238
333, 3, 3, -0.077118219840104
334, 1, 1, 0.0059043555214466
334, 2, 2, 0.013523443753279
334, 3, 3, -0.077118296788458
335, 1, 1, 0.0073805578367871
335, 2, 2, 0.01352344534332
335, 3, 3, -0.077118373736811
336, 1, 1, 0.0088567601521275
336, 2, 2, 0.013523446933361
336, 3, 3, -0.077118450685165
337, 1, 1, -4.5214987398623e-07
337, 2, 2, 0.016228123567905
337, 3, 3, -0.077117987908517
338, 1, 1, 0.0014757501654665
338, 2, 2, 0.016228125157946
338, 3, 3, -0.07711806485687
339, 1, 1, 0.0029519524808069
339, 2, 2, 0.016228126747987
339, 3, 3, -0.077118141805224
340, 1, 1, 0.0044281547961473
340, 2, 2, 0.016228128338028
340, 3, 3, -0.077118218753577
341, 1, 1, 0.0059043571114878
341, 2, 2, 0.016228129928069
341, 3, 3, -0.077118295701931
342, 1, 1, 0.0073805594268282
342, 2, 2, 0.01622813151811
342, 3, 3, -0.077118372650284
343, 1, 1, 0.0088567617421687
343, 2, 2, 0.016228133108152
343, 3, 3, -0.077118449598637
*Output, field, frequency=1
*Element Output
S, E, SDV
*Node Output
U
*Output, history, frequency=1
*Energy Output
ALLSE, ALLIE, ALLPD, ALLAE
*End Step
